     Program PWSCF v.5.1rc2 starts on  9Feb2019 at 22: 8:22

     Current dimensions of program PWSCF are:
     Max number of different atomic species (ntypx) = 10
     Max number of k-points (npk) =  40000
     Max angular momentum in pseudopotentials (lmaxx) =  3

     IMPORTANT: XC functional enforced from input :
     Exchange-correlation      = PBE ( 1  4  3  4 0)
     Any further DFT definition will be discarded
     Please, verify this is what you really want

     Subspace diagonalization in iterative solution of the eigenvalue problem:
     a serial algorithm will be used

     bravais-lattice index     =            0
     lattice parameter (alat)  =       1.8897  a.u.
     unit-cell volume          =   23261.3228 (a.u.)^3
     number of atoms/cell      =           48
     number of atomic types    =            4
     number of electrons       =       654.00
     number of Kohn-Sham states=          337
     kinetic-energy cutoff     =      40.4243  Ry
     charge density cutoff     =     330.7439  Ry
     convergence threshold     =      7.3E-07
     mixing beta               =       0.2000
     number of iterations used =            8  local-TF  mixing
     Exchange-correlation      = PBE ( 1  4  3  4 0)
     nstep                     =           50

     celldm(1)=   1.889726  celldm(2)=   0.000000  celldm(3)=   0.000000
     celldm(4)=   0.000000  celldm(5)=   0.000000  celldm(6)=   0.000000

     crystal axes: (cart. coord. in units of alat)
               a(1) = (  11.534892   0.000000   0.000000 )
               a(2) = (  -5.767446   9.989509   0.000000 )
               a(3) = (   0.000000   0.000000  29.914390 )

     reciprocal axes: (cart. coord. in units 2 pi/alat)
               b(1) = (  0.086693  0.050053  0.000000 )
               b(2) = (  0.000000  0.100105  0.000000 )
               b(3) = (  0.000000  0.000000  0.033429 )

     PseudoPot. # 1 for Au read from file:
     /gpfs/pace1/project/chbe-medford/medford-share/data/pseudos/SSSP_eff_PBE/Au.UPF
     MD5 check sum: 1009843a674e36925f098327e430af60
     Pseudo is Norm-conserving, Zval = 19.0
     Generated using ONCVPSP code by D. R. Hamann
     Using radial grid of  602 points,  8 beta functions with:
                l(1) =   0
                l(2) =   0
                l(3) =   1
                l(4) =   1
                l(5) =   2
                l(6) =   2
                l(7) =   3
                l(8) =   3

     PseudoPot. # 2 for O  read from file:
     /gpfs/pace1/project/chbe-medford/medford-share/data/pseudos/SSSP_eff_PBE/O.UPF
     MD5 check sum: 734c27235a0248c51dbae37a1fbe46ec
     Pseudo is Ultrasoft + core correction, Zval =  6.0
     Generated by new atomic code, or converted to UPF format
     Using radial grid of  737 points,  5 beta functions with:
                l(1) =   0
                l(2) =   0
                l(3) =   1
                l(4) =   1
                l(5) =   2
     Q(r) pseudized with  8 coefficients,  rinner =    0.900   0.900   0.900
                                                       0.900   0.900

     PseudoPot. # 3 for C  read from file:
     /gpfs/pace1/project/chbe-medford/medford-share/data/pseudos/SSSP_eff_PBE/C.UPF
     MD5 check sum: d1aef80898a10debaa0f26306b886e00
     Pseudo is Ultrasoft + core correction, Zval =  4.0
     Generated by new atomic code, or converted to UPF format
     Using radial grid of  721 points,  4 beta functions with:
                l(1) =   0
                l(2) =   0
                l(3) =   1
                l(4) =   1
     Q(r) pseudized with  8 coefficients,  rinner =    1.100   1.100   1.100

     PseudoPot. # 4 for  H read from file:
     /gpfs/pace1/project/chbe-medford/medford-share/data/pseudos/SSSP_eff_PBE/H.UPF
     MD5 check sum: 36633979392af7100e6f6632747262d3
     Pseudo is Ultrasoft, Zval =  1.0
     Generated using "atomic" code by A. Dal Corso  v.5.0.99 svn rev. 10869
     Using radial grid of  929 points,  2 beta functions with:
                l(1) =   0
                l(2) =   0
     Q(r) pseudized with 0 coefficients

     atomic species   valence    mass     pseudopotential
        Au1           19.00   196.96650     Au( 1.00)
        O1             6.00    15.99940     O ( 1.00)
        C1             4.00    12.01100     C ( 1.00)
        H1             1.00     1.00794      H( 1.00)

     No symmetry found

   Cartesian axes

     site n.     atom                  positions (alat units)
         1           Au1 tau(   1) = (   0.0000000   0.0000000  10.0000000  )
         2           Au1 tau(   2) = (   1.4418614   0.8324591  12.3545499  )
         3           Au1 tau(   3) = (  -1.4418614   2.4973773  10.0000000  )
         4           Au1 tau(   4) = (   0.0000000   3.3298364  12.3545499  )
         5           Au1 tau(   5) = (  -2.8837229   4.9947545  10.0000000  )
         6           Au1 tau(   6) = (  -1.4418614   5.8272136  12.3545499  )
         7           Au1 tau(   7) = (  -4.3255843   7.4921318  10.0000000  )
         8           Au1 tau(   8) = (  -2.8837229   8.3245909  12.3545499  )
         9           Au1 tau(   9) = (   2.8837229   0.0000000  10.0000000  )
        10           Au1 tau(  10) = (   4.3255843   0.8324591  12.3545499  )
        11           Au1 tau(  11) = (   1.4418614   2.4973773  10.0000000  )
        12           Au1 tau(  12) = (   2.8837229   3.3298364  12.3545499  )
        13           Au1 tau(  13) = (   0.0000000   4.9947545  10.0000000  )
        14           Au1 tau(  14) = (   1.4418614   5.8272136  12.3545499  )
        15           Au1 tau(  15) = (  -1.4418614   7.4921318  10.0000000  )
        16           Au1 tau(  16) = (   0.0000000   8.3245909  12.3545499  )
        17           Au1 tau(  17) = (   5.7674458   0.0000000  10.0000000  )
        18           Au1 tau(  18) = (   7.2093072   0.8324591  12.3545499  )
        19           Au1 tau(  19) = (   4.3255843   2.4973773  10.0000000  )
        20           Au1 tau(  20) = (   5.7674458   3.3298364  12.3545499  )
        21           Au1 tau(  21) = (   2.8837229   4.9947545  10.0000000  )
        22           Au1 tau(  22) = (   4.3255843   5.8272136  12.3545499  )
        23           Au1 tau(  23) = (   1.4418614   7.4921318  10.0000000  )
        24           Au1 tau(  24) = (   2.8837229   8.3245909  12.3545499  )
        25           Au1 tau(  25) = (   8.6511686   0.0000000  10.0000000  )
        26           Au1 tau(  26) = (  10.0930301   0.8324591  12.3545499  )
        27           Au1 tau(  27) = (   7.2093072   2.4973773  10.0000000  )
        28           Au1 tau(  28) = (   8.6511686   3.3298364  12.3545499  )
        29           Au1 tau(  29) = (   5.7674458   4.9947545  10.0000000  )
        30           Au1 tau(  30) = (   7.2093072   5.8272136  12.3545499  )
        31           Au1 tau(  31) = (   4.3255843   7.4921318  10.0000000  )
        32           Au1 tau(  32) = (   5.7674458   8.3245909  12.3545499  )
        33           O1  tau(  33) = (   4.3772000   7.0728056  17.0062221  )
        34           O1  tau(  34) = (   4.3260000   2.4970000  14.8545499  )
        35           O1  tau(  35) = (   4.3769000   2.0518933  17.0810973  )
        36           C1  tau(  36) = (   4.3632000   4.7843101  17.7850125  )
        37           C1  tau(  37) = (   4.3583000   4.3632607  16.3190916  )
        38           C1  tau(  38) = (   4.3586000   6.2926773  17.9570439  )
        39           C1  tau(  39) = (   4.3251000   6.7983549  19.3759847  )
        40           C1  tau(  40) = (   4.3556000   2.8604018  16.1635194  )
        41           H1  tau(  41) = (   5.2535000   4.3886822  18.2870602  )
        42           H1  tau(  42) = (   3.4787000   4.3822707  18.2923652  )
        43           H1  tau(  43) = (   5.2471000   4.7580101  15.8137655  )
        44           H1  tau(  44) = (   3.4671000   4.7609197  15.8205260  )
        45           H1  tau(  45) = (   3.4124000   6.4516467  19.8669009  )
        46           H1  tau(  46) = (   5.2045000   6.4366997  19.9143897  )
        47           H1  tau(  47) = (   4.3346000   7.8918201  19.3784473  )
        48           H1  tau(  48) = (   4.3241000   1.5221262  14.7460809  )

     number of k points=     4  Fermi-Dirac smearing, width (Ry)=  0.0073
                       cart. coord. in units 2pi/alat
        k(    1) = (   0.0000000   0.0000000   0.0000000), wk =   0.5000000
        k(    2) = (   0.0000000  -0.0500525   0.0000000), wk =   0.5000000
        k(    3) = (   0.0433467  -0.0250263   0.0000000), wk =   0.5000000
        k(    4) = (  -0.0433467  -0.0250263   0.0000000), wk =   0.5000000

     Largest allocated arrays     est. size (Mb)     dimensions
     Largest temporary arrays     est. size (Mb)     dimensions

     Initial potential from superposition of free atoms
     Check: negative starting charge=   -0.002273

     starting charge  653.28105, renormalised to  654.00000

     negative rho (up, down):  2.276E-03 0.000E+00
     Starting wfc are   40 randomized atomic wfcs +  297 random wfc

     Self-consistent Calculation

     iteration #  1     ecut=    40.42 Ry     beta=0.20
     Davidson diagonalization with overlap
     ethr =  1.00E-02,  avg # of iterations = 12.0

     Threshold (ethr) on eigenvalues was too large:
     Diagonalizing with lowered threshold

     Davidson diagonalization with overlap
     ethr =  3.21E-04,  avg # of iterations =  2.0

     negative rho (up, down):  5.085E-05 0.000E+00

     total energy              =   -8954.73900864 Ry
     Harris-Foulkes estimate   =   -8954.97503021 Ry
     estimated scf accuracy    <       2.10834215 Ry

[...]

     End of self-consistent calculation

          k = 0.0000 0.0000 0.0000 (100843 PWs)   bands (ev):

  -106.1977-106.1470-106.1298-106.1285-106.1272-106.1262-106.1259-106.1237
  -106.1234-106.1224-106.1217-106.1212-106.1209-106.1199-106.1188-106.1187
  -106.1185-106.1183-106.1173-106.1173-106.1170-106.1161-106.1158-106.1154
  -106.1146-106.1142-106.1140-106.1128-106.1125-106.1119-106.1102-106.1089
   -57.5883 -57.5881 -57.5742 -57.5651 -57.5623 -57.5590 -57.5490 -57.5471
   -57.5407 -57.5395 -57.5377 -57.5368 -57.5359 -57.5344 -57.5328 -57.5324
   -57.5303 -57.5301 -57.5028 -57.5019 -57.4910 -57.4906 -57.4886 -57.4872
   -57.4827 -57.4826 -57.4814 -57.4792 -57.4784 -57.4770 -57.4758 -57.4748
   -57.4747 -57.4733 -57.4728 -57.4718 -57.4638 -57.4631 -57.4605 -57.4595
   -57.4591 -57.4585 -57.4521 -57.4505 -57.4496 -57.4329 -57.4326 -57.4276
   -57.4273 -57.4261 -57.4255 -57.4252 -57.4241 -57.4221 -57.4101 -57.4081
   -57.4073 -57.4049 -57.4048 -57.4035 -57.4025 -57.4021 -57.4016 -57.3859
   -57.3859 -57.3640 -57.3483 -57.3417 -57.3411 -57.3404 -57.3377 -57.3294
   -57.3160 -57.3112 -57.3088 -57.3082 -57.3074 -57.3047 -57.3039 -57.3030
   -57.2918 -57.2770 -57.2733 -57.2722 -57.2718 -57.2713 -57.2678 -57.2676
   -57.2661 -57.2635 -57.2602 -57.2583 -57.2576 -57.2575 -57.2568 -57.2539
   -23.6582 -21.7378 -21.3289 -15.9409 -14.5559 -13.0509 -11.0151  -9.2096
    -8.8854  -8.1774  -8.1725  -7.8452  -7.7262  -7.6615  -7.6596  -7.6570
    -7.6562  -7.6541  -7.6001  -7.1088  -7.0707  -7.0701  -7.0693  -7.0325
[...]
               b(1) = (  0.086693  0.050053  0.000000 )
               b(2) = (  0.000000  0.100105  0.000000 )
               b(3) = (  0.000000  0.000000  0.033429 )

     PseudoPot. # 1 for Au read from file:
     /gpfs/pace1/project/chbe-medford/medford-share/data/pseudos/SSSP_eff_PBE/Au.UPF
     MD5 check sum: 1009843a674e36925f098327e430af60
     Pseudo is Norm-conserving, Zval = 19.0
     Generated using ONCVPSP code by D. R. Hamann
     Using radial grid of  602 points,  8 beta functions with:
                l(1) =   0
                l(2) =   0
                l(3) =   1
                l(4) =   1
                l(5) =   2
                l(6) =   2
                l(7) =   3
                l(8) =   3

     PseudoPot. # 2 for O  read from file:
     /gpfs/pace1/project/chbe-medford/medford-share/data/pseudos/SSSP_eff_PBE/O.UPF
     MD5 check sum: 734c27235a0248c51dbae37a1fbe46ec
     Pseudo is Ultrasoft + core correction, Zval =  6.0
     Generated by new atomic code, or converted to UPF format
     Using radial grid of  737 points,  5 beta functions with:
                l(1) =   0
                l(2) =   0
                l(3) =   1
                l(4) =   1
                l(5) =   2
     Q(r) pseudized with  8 coefficients,  rinner =    0.900   0.900   0.900
                                                       0.900   0.900

     PseudoPot. # 3 for C  read from file:
     /gpfs/pace1/project/chbe-medford/medford-share/data/pseudos/SSSP_eff_PBE/C.UPF
     MD5 check sum: d1aef80898a10debaa0f26306b886e00
     Pseudo is Ultrasoft + core correction, Zval =  4.0
     Generated by new atomic code, or converted to UPF format
     Using radial grid of  721 points,  4 beta functions with:
                l(1) =   0
                l(2) =   0
                l(3) =   1
                l(4) =   1
     Q(r) pseudized with  8 coefficients,  rinner =    1.100   1.100   1.100

     PseudoPot. # 4 for  H read from file:
     /gpfs/pace1/project/chbe-medford/medford-share/data/pseudos/SSSP_eff_PBE/H.UPF
     MD5 check sum: 36633979392af7100e6f6632747262d3
     Pseudo is Ultrasoft, Zval =  1.0
     Generated using "atomic" code by A. Dal Corso  v.5.0.99 svn rev. 10869
     Using radial grid of  929 points,  2 beta functions with:
                l(1) =   0
                l(2) =   0
     Q(r) pseudized with 0 coefficients

     atomic species   valence    mass     pseudopotential
        Au1           19.00   196.96650     Au( 1.00)
        O1             6.00    15.99940     O ( 1.00)
        C1             4.00    12.01100     C ( 1.00)
        H1             1.00     1.00794      H( 1.00)

     No symmetry found

   Cartesian axes

     site n.     atom                  positions (alat units)
         1           Au1 tau(   1) = (   0.0000000   0.0000000  10.0000000  )
         2           Au1 tau(   2) = (   1.4418614   0.8324591  12.3545499  )
         3           Au1 tau(   3) = (  -1.4418614   2.4973773  10.0000000  )
         4           Au1 tau(   4) = (   0.0000000   3.3298364  12.3545499  )
         5           Au1 tau(   5) = (  -2.8837229   4.9947545  10.0000000  )
         6           Au1 tau(   6) = (  -1.4418614   5.8272136  12.3545499  )
         7           Au1 tau(   7) = (  -4.3255843   7.4921318  10.0000000  )
         8           Au1 tau(   8) = (  -2.8837229   8.3245909  12.3545499  )
         9           Au1 tau(   9) = (   2.8837229   0.0000000  10.0000000  )
        10           Au1 tau(  10) = (   4.3255843   0.8324591  12.3545499  )
        11           Au1 tau(  11) = (   1.4418614   2.4973773  10.0000000  )
        12           Au1 tau(  12) = (   2.8837229   3.3298364  12.3545499  )
        13           Au1 tau(  13) = (   0.0000000   4.9947545  10.0000000  )
        14           Au1 tau(  14) = (   1.4418614   5.8272136  12.3545499  )
        15           Au1 tau(  15) = (  -1.4418614   7.4921318  10.0000000  )
        16           Au1 tau(  16) = (   0.0000000   8.3245909  12.3545499  )
        17           Au1 tau(  17) = (   5.7674458   0.0000000  10.0000000  )
        18           Au1 tau(  18) = (   7.2093072   0.8324591  12.3545499  )
        19           Au1 tau(  19) = (   4.3255843   2.4973773  10.0000000  )
        20           Au1 tau(  20) = (   5.7674458   3.3298364  12.3545499  )
        21           Au1 tau(  21) = (   2.8837229   4.9947545  10.0000000  )
        22           Au1 tau(  22) = (   4.3255843   5.8272136  12.3545499  )
        23           Au1 tau(  23) = (   1.4418614   7.4921318  10.0000000  )
        24           Au1 tau(  24) = (   2.8837229   8.3245909  12.3545499  )
        25           Au1 tau(  25) = (   8.6511686   0.0000000  10.0000000  )
        26           Au1 tau(  26) = (  10.0930301   0.8324591  12.3545499  )
        27           Au1 tau(  27) = (   7.2093072   2.4973773  10.0000000  )
        28           Au1 tau(  28) = (   8.6511686   3.3298364  12.3545499  )
        29           Au1 tau(  29) = (   5.7674458   4.9947545  10.0000000  )
        30           Au1 tau(  30) = (   7.2093072   5.8272136  12.3545499  )
        31           Au1 tau(  31) = (   4.3255843   7.4921318  10.0000000  )
        32           Au1 tau(  32) = (   5.7674458   8.3245909  12.3545499  )
        33           O1  tau(  33) = (   4.3772000   7.0728056  17.0062221  )
        34           O1  tau(  34) = (   4.3260000   2.4970000  14.8545499  )
        35           O1  tau(  35) = (   4.3769000   2.0518933  17.0810973  )
        36           C1  tau(  36) = (   4.3632000   4.7843101  17.7850125  )
        37           C1  tau(  37) = (   4.3583000   4.3632607  16.3190916  )
        38           C1  tau(  38) = (   4.3586000   6.2926773  17.9570439  )
        39           C1  tau(  39) = (   4.3251000   6.7983549  19.3759847  )
        40           C1  tau(  40) = (   4.3556000   2.8604018  16.1635194  )
        41           H1  tau(  41) = (   5.2535000   4.3886822  18.2870602  )
        42           H1  tau(  42) = (   3.4787000   4.3822707  18.2923652  )
        43           H1  tau(  43) = (   5.2471000   4.7580101  15.8137655  )
        44           H1  tau(  44) = (   3.4671000   4.7609197  15.8205260  )
        45           H1  tau(  45) = (   3.4124000   6.4516467  19.8669009  )
        46           H1  tau(  46) = (   5.2045000   6.4366997  19.9143897  )
        47           H1  tau(  47) = (   4.3346000   7.8918201  19.3784473  )
        48           H1  tau(  48) = (   4.3241000   1.5221262  14.7460809  )

     number of k points=    10  Fermi-Dirac smearing, width (Ry)=  0.0073
                       cart. coord. in units 2pi/alat
        k(    1) = (   0.0000000   0.0000000   0.0000000), wk =   0.1250000
        k(    2) = (   0.0000000   0.0250263   0.0000000), wk =   0.2500000
        k(    3) = (   0.0000000  -0.0500525   0.0000000), wk =   0.1250000
        k(    4) = (   0.0216734   0.0375394   0.0000000), wk =   0.2500000
        k(    5) = (  -0.0216734   0.0125131   0.0000000), wk =   0.2500000
        k(    6) = (   0.0216734   0.0125131   0.0000000), wk =   0.2500000
        k(    7) = (   0.0433467  -0.0250263   0.0000000), wk =   0.1250000
        k(    8) = (  -0.0433467  -0.0250263   0.0000000), wk =   0.1250000
        k(    9) = (  -0.0216734   0.0375394   0.0000000), wk =   0.2500000
        k(   10) = (   0.0433467   0.0000000   0.0000000), wk =   0.2500000

     Largest allocated arrays     est. size (Mb)     dimensions
     Largest temporary arrays     est. size (Mb)     dimensions

     Initial potential from superposition of free atoms
     Check: negative starting charge=   -0.002273

     starting charge  653.28105, renormalised to  654.00000

     negative rho (up, down):  2.276E-03 0.000E+00
     Starting wfc are   40 randomized atomic wfcs +  297 random wfc

[...]

     Threshold (ethr) on eigenvalues was too large:
     Diagonalizing with lowered threshold

     Davidson diagonalization with overlap
     ethr =  3.28E-04,  avg # of iterations =  1.9

[...]

     iteration #  7     ecut=    40.42 Ry     beta=0.07
     Davidson diagonalization with overlap
     c_bands:  1 eigenvalues not converged
     c_bands:  1 eigenvalues not converged
     ethr =  8.37E-06,  avg # of iterations = 11.9

[...]

     Writing output data file calc.save
     Check: negative starting charge=   -0.002246
     NEW-OLD atomic charge density approx. for the potential
     Check: negative starting charge=   -0.002245

[...]

     Self-consistent Calculation

[...]

     total energy              =   -8954.35737507 Ry
     Harris-Foulkes estimate   =   -8954.35737504 Ry
     estimated scf accuracy    <       0.00000037 Ry

     iteration #  7     ecut=    40.42 Ry     beta=0.07
     Davidson diagonalization with overlap
     ethr =  5.62E-11,  avg # of iterations =  3.0

     negative rho (up, down):  2.971E-03 0.000E+00

     End of self-consistent calculation

[...]

          k =-0.0217 0.0375 0.0000 (101030 PWs)   bands (ev):

[...]

          k = 0.0433 0.0000 0.0000 (101030 PWs)   bands (ev):

  -105.9901-105.9880-105.9876-105.9857-105.9849-105.9842-105.9838-105.9836
  -105.9831-105.9822-105.9820-105.9817-105.9814-105.9808-105.9806-105.9804
  -105.9800-105.9798-105.9796-105.9791-105.9788-105.9786-105.9783-105.9782
  -105.9780-105.9775-105.9771-105.9768-105.9750-105.9745-105.9726-105.9718
   -57.4162 -57.4088 -57.4083 -57.4055 -57.4054 -57.4013 -57.3953 -57.3947
   -57.3939 -57.3938 -57.3911 -57.3909 -57.3861 -57.3856 -57.3836 -57.3825
   -57.3823 -57.3739 -57.3722 -57.3715 -57.3617 -57.3613 -57.3600 -57.3438
   -57.3429 -57.3423 -57.3368 -57.3364 -57.3311 -57.3310 -57.3159 -57.3087
   -57.3086 -57.3065 -57.3061 -57.3004 -57.3002 -57.2973 -57.2947 -57.2945
   -57.2932 -57.2932 -57.2913 -57.2855 -57.2853 -57.2847 -57.2839 -57.2833
   -57.2826 -57.2793 -57.2757 -57.2754 -57.2722 -57.2697 -57.2696 -57.2659
   -57.2656 -57.2652 -57.2641 -57.2636 -57.2578 -57.2468 -57.2467 -57.2416
   -57.2407 -57.2375 -57.2371 -57.2216 -57.2212 -57.2119 -57.2093 -57.2087
   -57.2019 -57.2013 -57.1996 -57.1984 -57.1897 -57.1859 -57.1855 -57.1760
   -57.1679 -57.1616 -57.1609 -57.1585 -57.1553 -57.1542 -57.1527 -57.1519
   -57.1502 -57.1496 -57.1483 -57.1461 -57.1451 -57.1436 -57.1425 -57.1407
   -23.5362 -21.8731 -21.2336 -15.8810 -14.5065 -12.9124 -10.6146  -8.9330
    -8.7146  -8.2731  -8.2723  -8.1116  -7.9769  -7.6202  -7.2620  -7.2282
    -7.2275  -6.9616  -6.9566  -6.9554  -6.8821  -6.8813  -6.8648  -6.8638
    -6.8390  -6.7538  -6.6768  -6.6767  -6.6621  -6.6616  -6.6084  -6.5920
    -6.5652  -6.4981  -6.4980  -6.3380  -6.3378  -6.3087  -6.3085  -6.2038
    -6.2037  -6.1842  -6.1570  -6.1565  -6.0897  -6.0893  -6.0305  -6.0304
    -6.0156  -6.0153  -5.9758  -5.9751  -5.9692  -5.9671  -5.8257  -5.7373
    -5.7345  -5.7181  -5.6049  -5.6040  -5.5646  -5.3203  -5.3187  -5.2721
    -5.2382  -5.2381  -5.1237  -5.1224  -5.0951  -5.0943  -5.0925  -5.0870
    -5.0634  -5.0100  -5.0087  -4.9935  -4.9921  -4.9882  -4.9803  -4.9779
    -4.9760  -4.9479  -4.9461  -4.9118  -4.9073  -4.8857  -4.8851  -4.8391
    -4.7560  -4.7457  -4.7454  -4.7367  -4.6960  -4.6225  -4.6062  -4.6037
    -4.5404  -4.5211  -4.4934  -4.4841  -4.4837  -4.4401  -4.3919  -4.3544
    -4.3541  -4.3191  -4.3187  -4.2967  -4.2965  -4.2722  -4.2722  -4.2356
    -4.2089  -4.2089  -4.1292  -4.1289  -4.1205  -4.1203  -4.0870  -4.0861
    -3.9597  -3.9594  -3.8404  -3.8286  -3.8280  -3.8198  -3.8196  -3.7239
    -3.7209  -3.6989  -3.6982  -3.6568  -3.6340  -3.6176  -3.6162  -3.5045
    -3.4280  -3.4179  -3.4144  -3.3633  -3.3578  -3.3570  -3.3101  -3.3089
    -3.3081  -3.3066  -3.2900  -3.2301  -3.2293  -3.2266  -3.2258  -3.1962
    -3.1962  -3.1357  -3.0264  -3.0185  -3.0019  -3.0014  -2.9882  -2.9881
    -2.9566  -2.9562  -2.9282  -2.9130  -2.9115  -2.8818  -2.8813  -2.8052
    -2.8049  -2.7886  -2.7884  -2.7608  -2.7200  -2.7195  -2.7168  -2.7166
    -2.6437  -2.6434  -2.6024  -2.5964  -2.5958  -2.5549  -2.5084  -2.5080
    -2.4798  -2.4342  -2.4331  -2.4124  -2.4110  -2.4012  -2.2565  -2.1331
    -2.1271  -1.6284  -1.5002  -1.4995  -1.4087  -1.4084  -1.2817  -1.2750
    -0.5739  -0.4469  -0.4465   0.4870   0.4902   0.6188   0.6251   0.6901
     1.0261

     the Fermi energy is    -0.9416 ev

!    total energy              =   -8954.35737561 Ry
     Harris-Foulkes estimate   =   -8954.35737511 Ry
     estimated scf accuracy    <       0.00000008 Ry

     The total energy is the sum of the following terms:

     one-electron contribution =  -81583.65170919 Ry
     hartree contribution      =   40623.81683995 Ry
     xc contribution           =    -856.20314281 Ry
     ewald contribution        =   32861.69455706 Ry
     smearing contrib. (-TS)   =      -0.01392063 Ry

     convergence has been achieved in   7 iterations

     Forces acting on atoms (Ry/au):

     negative rho (up, down):  2.971E-03 0.000E+00
     atom    1 type  1   force =    -0.00002616    0.00000594   -0.02381425
     atom    2 type  1   force =     0.00001260   -0.00000924    0.02386524
     atom    3 type  1   force =     0.00000375   -0.00000543   -0.02396714
     atom    4 type  1   force =     0.00000646   -0.00001304    0.02392945
     atom    5 type  1   force =    -0.00001053   -0.00000518   -0.02400086
     atom    6 type  1   force =     0.00000015   -0.00000371    0.02397334
     atom    7 type  1   force =    -0.00000014   -0.00001506   -0.02387936
     atom    8 type  1   force =    -0.00000315    0.00004138    0.02401712
     atom    9 type  1   force =    -0.00004487    0.00003435   -0.02400991
     atom   10 type  1   force =     0.00000910   -0.00023677    0.02368598
     atom   11 type  1   force =     0.00000308   -0.00003503   -0.02387869
     atom   12 type  1   force =    -0.00015625    0.00009618    0.02382616
     atom   13 type  1   force =     0.00001314   -0.00000680   -0.02400019
     atom   14 type  1   force =     0.00003293   -0.00001123    0.02392333
     atom   15 type  1   force =    -0.00000105   -0.00000729   -0.02408783
     atom   16 type  1   force =     0.00000301    0.00003912    0.02402204
     atom   17 type  1   force =     0.00004596    0.00003309   -0.02402705
     atom   18 type  1   force =    -0.00001625   -0.00000358    0.02388455
     atom   19 type  1   force =    -0.00000002   -0.00000714   -0.02377095
     atom   20 type  1   force =     0.00015593    0.00009617    0.02382639
     atom   21 type  1   force =     0.00002746    0.00003792   -0.02377966
     atom   22 type  1   force =     0.00000231   -0.00002345    0.02395956
     atom   23 type  1   force =     0.00000276   -0.00001787   -0.02389119
     atom   24 type  1   force =     0.00000884    0.00000098    0.02392522
     atom   25 type  1   force =     0.00002615    0.00000335   -0.02381938
     atom   26 type  1   force =     0.00000161   -0.00000926    0.02386350
     atom   27 type  1   force =    -0.00000610   -0.00003408   -0.02391627
     atom   28 type  1   force =    -0.00000664   -0.00001375    0.02394051
     atom   29 type  1   force =    -0.00002965    0.00003462   -0.02379717
     atom   30 type  1   force =    -0.00003391   -0.00001041    0.02393291
     atom   31 type  1   force =    -0.00000127   -0.00000797   -0.02365980
     atom   32 type  1   force =    -0.00000923    0.00000097    0.02392972
     atom   33 type  2   force =     0.00013236   -0.00016557    0.00060819
     atom   34 type  2   force =     0.00000906    0.00109484   -0.00033547
     atom   35 type  2   force =     0.00007523    0.00067802    0.00011324
     atom   36 type  3   force =     0.00001868   -0.00025883    0.00008888
     atom   37 type  3   force =     0.00028960    0.00002475   -0.00011547
     atom   38 type  3   force =     0.00005816   -0.00008046   -0.00005033
     atom   39 type  3   force =    -0.00037988    0.00027215   -0.00038803
     atom   40 type  3   force =    -0.00022428   -0.00055868    0.00041806
     atom   41 type  4   force =    -0.00031949    0.00014286   -0.00006863
     atom   42 type  4   force =     0.00029209    0.00022673    0.00000482
     atom   43 type  4   force =    -0.00011355    0.00009828   -0.00005518
     atom   44 type  4   force =    -0.00034434    0.00024558   -0.00017015
     atom   45 type  4   force =    -0.00007010    0.00002176   -0.00015845
     atom   46 type  4   force =     0.00039722   -0.00012288    0.00010059
     atom   47 type  4   force =     0.00000409   -0.00013869   -0.00017866
     atom   48 type  4   force =     0.00016517   -0.00142763   -0.00001872

     Total force =     0.135224     Total SCF correction =     0.001336
 !ASE

     Writing output data file calc.save

     General routines

     Parallel routines

   This run was terminated on:   2: 2:51   8Apr2019

   JOB DONE.