     Program PWSCF v.5.1rc2 starts on  9Feb2019 at 22:48:53

     Current dimensions of program PWSCF are:
     Max number of different atomic species (ntypx) = 10
     Max number of k-points (npk) =  40000
     Max angular momentum in pseudopotentials (lmaxx) =  3

     IMPORTANT: XC functional enforced from input :
     Exchange-correlation      = PBE ( 1  4  3  4 0)
     Any further DFT definition will be discarded
     Please, verify this is what you really want

     Subspace diagonalization in iterative solution of the eigenvalue problem:
     a serial algorithm will be used

     bravais-lattice index     =            0
     lattice parameter (alat)  =       1.8897  a.u.
     unit-cell volume          =   21663.5353 (a.u.)^3
     number of atoms/cell      =           47
     number of atomic types    =            4
     number of electrons       =       562.00
     number of Kohn-Sham states=          291
     kinetic-energy cutoff     =      40.4243  Ry
     charge density cutoff     =     330.7439  Ry
     convergence threshold     =      7.3E-07
     mixing beta               =       0.2000
     number of iterations used =            8  local-TF  mixing
     Exchange-correlation      = PBE ( 1  4  3  4 0)
     nstep                     =           50

     celldm(1)=   1.889726  celldm(2)=   0.000000  celldm(3)=   0.000000
     celldm(4)=   0.000000  celldm(5)=   0.000000  celldm(6)=   0.000000

     crystal axes: (cart. coord. in units of alat)
               a(1) = (  11.099314   0.000000   0.000000 )
               a(2) = (  -5.549657   9.612288   0.000000 )
               a(3) = (   0.000000   0.000000  30.089145 )

     reciprocal axes: (cart. coord. in units 2 pi/alat)
               b(1) = (  0.090096  0.052017  0.000000 )
               b(2) = (  0.000000  0.104034  0.000000 )
               b(3) = (  0.000000  0.000000  0.033235 )

     PseudoPot. # 1 for Pt read from file:
     /gpfs/pace1/project/chbe-medford/medford-share/data/pseudos/SSSP_eff_PBE/Pt.UPF
     MD5 check sum: f09d6de1a584b5a045c4fc126da2d0c4
     Pseudo is Ultrasoft + core correction, Zval = 16.0
     Generated by new atomic code, or converted to UPF format
     Using radial grid of  985 points,  6 beta functions with:
                l(1) =   0
                l(2) =   0
                l(3) =   1
                l(4) =   1
                l(5) =   2
                l(6) =   2
     Q(r) pseudized with  8 coefficients,  rinner =    1.300   1.300   1.300
                                                       1.300   1.300

     PseudoPot. # 2 for O  read from file:
     /gpfs/pace1/project/chbe-medford/medford-share/data/pseudos/SSSP_eff_PBE/O.UPF
     MD5 check sum: 734c27235a0248c51dbae37a1fbe46ec
     Pseudo is Ultrasoft + core correction, Zval =  6.0
     Generated by new atomic code, or converted to UPF format
     Using radial grid of  737 points,  5 beta functions with:
                l(1) =   0
                l(2) =   0
                l(3) =   1
                l(4) =   1
                l(5) =   2
     Q(r) pseudized with  8 coefficients,  rinner =    0.900   0.900   0.900
                                                       0.900   0.900

     PseudoPot. # 3 for C  read from file:
     /gpfs/pace1/project/chbe-medford/medford-share/data/pseudos/SSSP_eff_PBE/C.UPF
     MD5 check sum: d1aef80898a10debaa0f26306b886e00
     Pseudo is Ultrasoft + core correction, Zval =  4.0
     Generated by new atomic code, or converted to UPF format
     Using radial grid of  721 points,  4 beta functions with:
                l(1) =   0
                l(2) =   0
                l(3) =   1
                l(4) =   1
     Q(r) pseudized with  8 coefficients,  rinner =    1.100   1.100   1.100

     PseudoPot. # 4 for  H read from file:
     /gpfs/pace1/project/chbe-medford/medford-share/data/pseudos/SSSP_eff_PBE/H.UPF
     MD5 check sum: 36633979392af7100e6f6632747262d3
     Pseudo is Ultrasoft, Zval =  1.0
     Generated using "atomic" code by A. Dal Corso  v.5.0.99 svn rev. 10869
     Using radial grid of  929 points,  2 beta functions with:
                l(1) =   0
                l(2) =   0
     Q(r) pseudized with 0 coefficients

     atomic species   valence    mass     pseudopotential
        Pt1           16.00   195.08000     Pt( 1.00)
        O1             6.00    15.99940     O ( 1.00)
        C1             4.00    12.01100     C ( 1.00)
        H1             1.00     1.00794      H( 1.00)

     No symmetry found

   Cartesian axes

     site n.     atom                  positions (alat units)
         1           Pt1 tau(   1) = (   0.0000000   0.0000000  10.0000000  )
         2           Pt1 tau(   2) = (   1.3874142   0.8010240  12.2656379  )
         3           Pt1 tau(   3) = (  -1.3874142   2.4030719  10.0000000  )
         4           Pt1 tau(   4) = (   0.0000000   3.2040959  12.2656379  )
         5           Pt1 tau(   5) = (  -2.7748284   4.8061438  10.0000000  )
         6           Pt1 tau(   6) = (  -1.3874142   5.6071678  12.2656379  )
         7           Pt1 tau(   7) = (  -4.1622426   7.2092157  10.0000000  )
         8           Pt1 tau(   8) = (  -2.7748284   8.0102397  12.2656379  )
         9           Pt1 tau(   9) = (   2.7748284   0.0000000  10.0000000  )
        10           Pt1 tau(  10) = (   4.1622426   0.8010240  12.2656379  )
        11           Pt1 tau(  11) = (   1.3874142   2.4030719  10.0000000  )
        12           Pt1 tau(  12) = (   2.7748284   3.2040959  12.2656379  )
        13           Pt1 tau(  13) = (   0.0000000   4.8061438  10.0000000  )
        14           Pt1 tau(  14) = (   1.3874142   5.6071678  12.2656379  )
        15           Pt1 tau(  15) = (  -1.3874142   7.2092157  10.0000000  )
        16           Pt1 tau(  16) = (   0.0000000   8.0102397  12.2656379  )
        17           Pt1 tau(  17) = (   5.5496569   0.0000000  10.0000000  )
        18           Pt1 tau(  18) = (   6.9370711   0.8010240  12.2656379  )
        19           Pt1 tau(  19) = (   4.1622426   2.4030719  10.0000000  )
        20           Pt1 tau(  20) = (   5.5496569   3.2040959  12.2656379  )
        21           Pt1 tau(  21) = (   2.7748284   4.8061438  10.0000000  )
        22           Pt1 tau(  22) = (   4.1622426   5.6071678  12.2656379  )
        23           Pt1 tau(  23) = (   1.3874142   7.2092157  10.0000000  )
        24           Pt1 tau(  24) = (   2.7748284   8.0102397  12.2656379  )
        25           Pt1 tau(  25) = (   8.3244853   0.0000000  10.0000000  )
        26           Pt1 tau(  26) = (   9.7118995   0.8010240  12.2656379  )
        27           Pt1 tau(  27) = (   6.9370711   2.4030719  10.0000000  )
        28           Pt1 tau(  28) = (   8.3244853   3.2040959  12.2656379  )
        29           Pt1 tau(  29) = (   5.5496569   4.8061438  10.0000000  )
        30           Pt1 tau(  30) = (   6.9370711   5.6071678  12.2656379  )
        31           Pt1 tau(  31) = (   4.1622426   7.2092157  10.0000000  )
        32           Pt1 tau(  32) = (   5.5496569   8.0102397  12.2656379  )
        33           O1  tau(  33) = (   1.3870000   5.6070000  14.7656379  )
        34           O1  tau(  34) = (   3.4000351   6.8865000  18.3409170  )
        35           O1  tau(  35) = (   0.5662300   5.2541000  16.8578225  )
        36           O1  tau(  36) = (   3.4662155   5.4399000  20.0891449  )
        37           C1  tau(  37) = (   2.9556743   4.9901000  16.4044615  )
        38           C1  tau(  38) = (   3.1232348   4.6146000  17.8502848  )
        39           C1  tau(  39) = (   1.5074576   5.2807000  16.0790766  )
        40           C1  tau(  40) = (   3.3450857   5.6516000  18.8921418  )
        41           C1  tau(  41) = (   3.0511491   3.3418000  18.2690287  )
        42           H1  tau(  42) = (   3.5692465   5.8583000  16.1433998  )
        43           H1  tau(  43) = (   3.2797627   4.1590000  15.7653992  )
        44           H1  tau(  44) = (   2.8770862   2.5352000  17.5635430  )
        45           H1  tau(  45) = (   3.1595197   3.0596000  19.3109320  )
        46           H1  tau(  46) = (   0.4585546   5.8107000  14.5235234  )
        47           H1  tau(  47) = (   3.5469563   7.5837000  19.0151921  )

     number of k points=     4  Fermi-Dirac smearing, width (Ry)=  0.0073
                       cart. coord. in units 2pi/alat
        k(    1) = (   0.0000000   0.0000000   0.0000000), wk =   0.5000000
        k(    2) = (   0.0000000  -0.0520168   0.0000000), wk =   0.5000000
        k(    3) = (   0.0450478  -0.0260084   0.0000000), wk =   0.5000000
        k(    4) = (  -0.0450478  -0.0260084   0.0000000), wk =   0.5000000

     Largest allocated arrays     est. size (Mb)     dimensions
     Largest temporary arrays     est. size (Mb)     dimensions

     Initial potential from superposition of free atoms
     Check: negative starting charge=   -5.894144

     starting charge  545.99937, renormalised to  562.00000

     negative rho (up, down):  6.067E+00 0.000E+00
     Starting wfc are  426 randomized atomic wfcs

     Self-consistent Calculation

     iteration #  1     ecut=    40.42 Ry     beta=0.20
     Davidson diagonalization with overlap
     ethr =  1.00E-02,  avg # of iterations =  2.0

     negative rho (up, down):  5.983E+00 0.000E+00

     total energy              =   -6940.73014763 Ry
     Harris-Foulkes estimate   =   -6945.70733487 Ry
     estimated scf accuracy    <      95.95552284 Ry

[...]

     iteration # 27     ecut=    40.42 Ry     beta=0.20
     Davidson diagonalization with overlap
     c_bands:  1 eigenvalues not converged
     ethr =  2.12E-06,  avg # of iterations =  7.2

[...]

     End of self-consistent calculation

          k = 0.0000 0.0000 0.0000 ( 94123 PWs)   bands (ev):

   -53.8390 -53.8365 -53.8316 -53.8056 -53.8031 -53.7996 -53.7724 -53.7699
   -53.7598 -53.7582 -53.7563 -53.7561 -53.7505 -53.7491 -53.7459 -53.7452
   -53.7434 -53.7432 -53.6713 -53.6694 -53.6570 -53.6540 -53.6531 -53.6480
   -53.6403 -53.6399 -53.6324 -53.6304 -53.6301 -53.6288 -53.6278 -53.6268
   -53.6252 -53.6228 -53.6221 -53.6191 -53.5983 -53.5968 -53.5930 -53.5929
   -53.5878 -53.5867 -53.5733 -53.5725 -53.5663 -53.5316 -53.5280 -53.5269
   -53.5222 -53.5203 -53.5197 -53.5192 -53.5187 -53.5171 -53.5107 -53.4814
   -53.4809 -53.4764 -53.4753 -53.4743 -53.4735 -53.4713 -53.4711 -53.4565
   -53.4383 -53.4382 -53.4060 -53.4038 -53.4033 -53.4017 -53.4002 -53.3713
   -53.3363 -53.3354 -53.3325 -53.3324 -53.3317 -53.3312 -53.3301 -53.3236
   -53.2922 -53.2599 -53.2593 -53.2574 -53.2570 -53.2567 -53.2556 -53.2544
   -53.2472 -53.2407 -53.2357 -53.2320 -53.2314 -53.2296 -53.2293 -53.2272
   -24.0033 -23.4102 -21.6414 -21.0146 -16.5414 -14.3716 -12.6137 -11.8314
    -9.7266  -9.6378  -8.5171  -8.3694  -8.1402  -7.9909  -7.8788  -7.8763
    -7.8747  -7.8740  -7.8738  -7.8318  -7.5726  -7.2617  -7.2053  -7.2037
    -7.2027  -7.1253  -7.1223  -7.1192  -6.7321  -6.6059  -6.5916  -6.5905
    -6.5901  -6.5886  -6.5866  -6.3762  -6.3596  -6.3477  -6.3311  -6.3275
    -6.3260  -6.3211  -6.3209  -6.3201  -6.3126  -6.0053  -5.8107  -5.7790
[...]
     charge density cutoff     =     330.7439  Ry
     convergence threshold     =      3.7E-07
     mixing beta               =       0.0750
     number of iterations used =            8  local-TF  mixing
     Exchange-correlation      = PBE ( 1  4  3  4 0)
     nstep                     =           50

     celldm(1)=   1.889726  celldm(2)=   0.000000  celldm(3)=   0.000000
     celldm(4)=   0.000000  celldm(5)=   0.000000  celldm(6)=   0.000000

     crystal axes: (cart. coord. in units of alat)
               a(1) = (  11.099314   0.000000   0.000000 )
               a(2) = (  -5.549657   9.612288   0.000000 )
               a(3) = (   0.000000   0.000000  30.089145 )

     reciprocal axes: (cart. coord. in units 2 pi/alat)
               b(1) = (  0.090096  0.052017  0.000000 )
               b(2) = (  0.000000  0.104034  0.000000 )
               b(3) = (  0.000000  0.000000  0.033235 )

     PseudoPot. # 1 for Pt read from file:
     /gpfs/pace1/project/chbe-medford/medford-share/data/pseudos/SSSP_eff_PBE/Pt.UPF
     MD5 check sum: f09d6de1a584b5a045c4fc126da2d0c4
     Pseudo is Ultrasoft + core correction, Zval = 16.0
     Generated by new atomic code, or converted to UPF format
     Using radial grid of  985 points,  6 beta functions with:
                l(1) =   0
                l(2) =   0
                l(3) =   1
                l(4) =   1
                l(5) =   2
                l(6) =   2
     Q(r) pseudized with  8 coefficients,  rinner =    1.300   1.300   1.300
                                                       1.300   1.300

     PseudoPot. # 2 for O  read from file:
     /gpfs/pace1/project/chbe-medford/medford-share/data/pseudos/SSSP_eff_PBE/O.UPF
     MD5 check sum: 734c27235a0248c51dbae37a1fbe46ec
     Pseudo is Ultrasoft + core correction, Zval =  6.0
     Generated by new atomic code, or converted to UPF format
     Using radial grid of  737 points,  5 beta functions with:
                l(1) =   0
                l(2) =   0
                l(3) =   1
                l(4) =   1
                l(5) =   2
     Q(r) pseudized with  8 coefficients,  rinner =    0.900   0.900   0.900
                                                       0.900   0.900

     PseudoPot. # 3 for C  read from file:
     /gpfs/pace1/project/chbe-medford/medford-share/data/pseudos/SSSP_eff_PBE/C.UPF
     MD5 check sum: d1aef80898a10debaa0f26306b886e00
     Pseudo is Ultrasoft + core correction, Zval =  4.0
     Generated by new atomic code, or converted to UPF format
     Using radial grid of  721 points,  4 beta functions with:
                l(1) =   0
                l(2) =   0
                l(3) =   1
                l(4) =   1
     Q(r) pseudized with  8 coefficients,  rinner =    1.100   1.100   1.100

     PseudoPot. # 4 for  H read from file:
     /gpfs/pace1/project/chbe-medford/medford-share/data/pseudos/SSSP_eff_PBE/H.UPF
     MD5 check sum: 36633979392af7100e6f6632747262d3
     Pseudo is Ultrasoft, Zval =  1.0
     Generated using "atomic" code by A. Dal Corso  v.5.0.99 svn rev. 10869
     Using radial grid of  929 points,  2 beta functions with:
                l(1) =   0
                l(2) =   0
     Q(r) pseudized with 0 coefficients

     atomic species   valence    mass     pseudopotential
        Pt1           16.00   195.08000     Pt( 1.00)
        O1             6.00    15.99940     O ( 1.00)
        C1             4.00    12.01100     C ( 1.00)
        H1             1.00     1.00794      H( 1.00)

     No symmetry found

   Cartesian axes

     site n.     atom                  positions (alat units)
         1           Pt1 tau(   1) = (   0.0000000   0.0000000  10.0000000  )
         2           Pt1 tau(   2) = (   1.3874142   0.8010240  12.2656379  )
         3           Pt1 tau(   3) = (  -1.3874142   2.4030719  10.0000000  )
         4           Pt1 tau(   4) = (   0.0000000   3.2040959  12.2656379  )
         5           Pt1 tau(   5) = (  -2.7748284   4.8061438  10.0000000  )
         6           Pt1 tau(   6) = (  -1.3874142   5.6071678  12.2656379  )
         7           Pt1 tau(   7) = (  -4.1622426   7.2092157  10.0000000  )
         8           Pt1 tau(   8) = (  -2.7748284   8.0102397  12.2656379  )
         9           Pt1 tau(   9) = (   2.7748284   0.0000000  10.0000000  )
        10           Pt1 tau(  10) = (   4.1622426   0.8010240  12.2656379  )
        11           Pt1 tau(  11) = (   1.3874142   2.4030719  10.0000000  )
        12           Pt1 tau(  12) = (   2.7748284   3.2040959  12.2656379  )
        13           Pt1 tau(  13) = (   0.0000000   4.8061438  10.0000000  )
        14           Pt1 tau(  14) = (   1.3874142   5.6071678  12.2656379  )
        15           Pt1 tau(  15) = (  -1.3874142   7.2092157  10.0000000  )
        16           Pt1 tau(  16) = (   0.0000000   8.0102397  12.2656379  )
        17           Pt1 tau(  17) = (   5.5496569   0.0000000  10.0000000  )
        18           Pt1 tau(  18) = (   6.9370711   0.8010240  12.2656379  )
        19           Pt1 tau(  19) = (   4.1622426   2.4030719  10.0000000  )
        20           Pt1 tau(  20) = (   5.5496569   3.2040959  12.2656379  )
        21           Pt1 tau(  21) = (   2.7748284   4.8061438  10.0000000  )
        22           Pt1 tau(  22) = (   4.1622426   5.6071678  12.2656379  )
        23           Pt1 tau(  23) = (   1.3874142   7.2092157  10.0000000  )
        24           Pt1 tau(  24) = (   2.7748284   8.0102397  12.2656379  )
        25           Pt1 tau(  25) = (   8.3244853   0.0000000  10.0000000  )
        26           Pt1 tau(  26) = (   9.7118995   0.8010240  12.2656379  )
        27           Pt1 tau(  27) = (   6.9370711   2.4030719  10.0000000  )
        28           Pt1 tau(  28) = (   8.3244853   3.2040959  12.2656379  )
        29           Pt1 tau(  29) = (   5.5496569   4.8061438  10.0000000  )
        30           Pt1 tau(  30) = (   6.9370711   5.6071678  12.2656379  )
        31           Pt1 tau(  31) = (   4.1622426   7.2092157  10.0000000  )
        32           Pt1 tau(  32) = (   5.5496569   8.0102397  12.2656379  )
        33           O1  tau(  33) = (   1.3870000   5.6070000  14.7656379  )
        34           O1  tau(  34) = (   3.4000351   6.8865000  18.3409170  )
        35           O1  tau(  35) = (   0.5662300   5.2541000  16.8578225  )
        36           O1  tau(  36) = (   3.4662155   5.4399000  20.0891449  )
        37           C1  tau(  37) = (   2.9556743   4.9901000  16.4044615  )
        38           C1  tau(  38) = (   3.1232348   4.6146000  17.8502848  )
        39           C1  tau(  39) = (   1.5074576   5.2807000  16.0790766  )
        40           C1  tau(  40) = (   3.3450857   5.6516000  18.8921418  )
        41           C1  tau(  41) = (   3.0511491   3.3418000  18.2690287  )
        42           H1  tau(  42) = (   3.5692465   5.8583000  16.1433998  )
        43           H1  tau(  43) = (   3.2797627   4.1590000  15.7653992  )
        44           H1  tau(  44) = (   2.8770862   2.5352000  17.5635430  )
        45           H1  tau(  45) = (   3.1595197   3.0596000  19.3109320  )
        46           H1  tau(  46) = (   0.4585546   5.8107000  14.5235234  )
        47           H1  tau(  47) = (   3.5469563   7.5837000  19.0151921  )

     number of k points=    10  Fermi-Dirac smearing, width (Ry)=  0.0073
                       cart. coord. in units 2pi/alat
        k(    1) = (   0.0000000   0.0000000   0.0000000), wk =   0.1250000
        k(    2) = (   0.0000000   0.0260084   0.0000000), wk =   0.2500000
        k(    3) = (   0.0000000  -0.0520168   0.0000000), wk =   0.1250000
        k(    4) = (   0.0225239   0.0390126   0.0000000), wk =   0.2500000
        k(    5) = (  -0.0225239   0.0130042   0.0000000), wk =   0.2500000
        k(    6) = (   0.0225239   0.0130042   0.0000000), wk =   0.2500000
        k(    7) = (   0.0450478  -0.0260084   0.0000000), wk =   0.1250000
        k(    8) = (  -0.0450478  -0.0260084   0.0000000), wk =   0.1250000
        k(    9) = (  -0.0225239   0.0390126   0.0000000), wk =   0.2500000
        k(   10) = (   0.0450478  -0.0000000   0.0000000), wk =   0.2500000

     Largest allocated arrays     est. size (Mb)     dimensions
     Largest temporary arrays     est. size (Mb)     dimensions

     Initial potential from superposition of free atoms
     Check: negative starting charge=   -5.894144

     starting charge  545.99937, renormalised to  562.00000

     negative rho (up, down):  6.067E+00 0.000E+00
     Starting wfc are  426 randomized atomic wfcs

[...]

     Writing output data file calc.save
     Check: negative starting charge=   -5.894067
     NEW-OLD atomic charge density approx. for the potential
     Check: negative starting charge=   -5.894066

[...]

     Self-consistent Calculation

[...]

     iteration # 17     ecut=    40.42 Ry     beta=0.07
     Davidson diagonalization with overlap
     ethr =  1.46E-10,  avg # of iterations =  1.0

[...]

     total energy              =   -6934.49592546 Ry
     Harris-Foulkes estimate   =   -6934.49592555 Ry
     estimated scf accuracy    <       0.00000075 Ry

     iteration # 18     ecut=    40.42 Ry     beta=0.07
     Davidson diagonalization with overlap
     c_bands:  1 eigenvalues not converged
     ethr =  1.33E-10,  avg # of iterations =  3.8

     negative rho (up, down):  5.646E+00 0.000E+00

     End of self-consistent calculation

[...]

          k =-0.0225 0.0390 0.0000 ( 93991 PWs)   bands (ev):

[...]

          k = 0.0450-0.0000 0.0000 ( 93991 PWs)   bands (ev):

   -53.8664 -53.8504 -53.8499 -53.8443 -53.8441 -53.8342 -53.8224 -53.8211
   -53.8194 -53.8191 -53.8134 -53.8134 -53.8029 -53.8027 -53.7982 -53.7961
   -53.7950 -53.7757 -53.7744 -53.7743 -53.7515 -53.7503 -53.7498 -53.7143
   -53.7125 -53.7095 -53.7007 -53.7000 -53.6856 -53.6853 -53.6528 -53.6389
   -53.6385 -53.6331 -53.6325 -53.6205 -53.6197 -53.6140 -53.6103 -53.6100
   -53.6058 -53.6053 -53.6019 -53.5925 -53.5921 -53.5872 -53.5866 -53.5861
   -53.5859 -53.5780 -53.5690 -53.5682 -53.5623 -53.5572 -53.5566 -53.5499
   -53.5491 -53.5484 -53.5464 -53.5463 -53.5326 -53.5099 -53.5098 -53.5018
   -53.4976 -53.4947 -53.4922 -53.4613 -53.4572 -53.4391 -53.4333 -53.4309
   -53.4171 -53.4142 -53.4115 -53.4101 -53.3898 -53.3831 -53.3818 -53.3617
   -53.3446 -53.3326 -53.3288 -53.3261 -53.3184 -53.3147 -53.3134 -53.3126
   -53.3077 -53.3067 -53.3043 -53.2996 -53.2983 -53.2949 -53.2941 -53.2934
   -23.6230 -23.3631 -21.3381 -21.0373 -16.4051 -14.1206 -12.3574 -11.1372
    -9.4484  -9.2921  -8.7898  -8.7865  -8.1771  -8.0545  -7.7837  -7.6380
    -7.5960  -7.5942  -7.4819  -7.2781  -7.2779  -7.1900  -7.1896  -7.1563
    -7.1521  -7.1192  -7.0365  -6.9358  -6.9355  -6.9031  -6.9024  -6.8618
    -6.7714  -6.6918  -6.6917  -6.6202  -6.4893  -6.4886  -6.4813  -6.4806
    -6.3165  -6.3160  -6.2638  -6.2358  -6.2351  -6.1890  -6.1706  -6.1695
    -6.0577  -6.0572  -6.0514  -6.0504  -6.0401  -6.0036  -6.0025  -5.8617
    -5.7993  -5.7099  -5.6897  -5.6558  -5.6099  -5.5207  -5.5164  -5.2354
    -5.1753  -5.1727  -5.1606  -4.9954  -4.9948  -4.8485  -4.8472  -4.7898
    -4.7889  -4.7872  -4.7670  -4.7616  -4.7236  -4.6817  -4.6805  -4.6517
    -4.6511  -4.6477  -4.6467  -4.6453  -4.6443  -4.5400  -4.5216  -4.5183
    -4.5023  -4.5009  -4.3612  -4.3298  -4.3191  -4.3181  -4.1794  -4.1765
    -4.1300  -4.0890  -4.0402  -4.0133  -3.9994  -3.9965  -3.9761  -3.8233
    -3.7864  -3.7825  -3.7779  -3.7572  -3.7443  -3.7436  -3.6920  -3.6902
    -3.6453  -3.6435  -3.5974  -3.5956  -3.5869  -3.5736  -3.5133  -3.5049
    -3.4412  -3.4367  -3.4181  -3.4178  -3.2922  -3.2901  -3.2840  -3.2832
    -3.2450  -3.2419  -3.2383  -3.0425  -3.0409  -2.9609  -2.8527  -2.8476
    -2.7411  -2.6809  -2.6778  -2.6693  -2.6650  -2.6549  -2.5775  -2.5026
    -2.4783  -2.4452  -2.4432  -2.4224  -2.3927  -2.3706  -2.3193  -2.3058
    -2.2710  -2.2635  -2.2079  -2.1688  -2.1670  -2.0956  -2.0905  -1.9000
    -1.8973  -1.8965  -1.8818  -1.8810  -1.8722  -1.8699  -1.8687  -1.7959
    -1.7955  -1.7937  -1.7575  -1.7556  -1.6708  -1.6699  -1.6282  -1.6256
    -1.5996  -1.5888  -1.5646  -1.5301  -1.3995  -1.3984  -1.3949  -1.3657
    -1.3645  -1.3286  -1.3246  -1.2463  -1.2451  -1.2228  -1.2152  -1.2098
    -1.2087  -1.1265  -1.1257

     the Fermi energy is    -1.2855 ev

!    total energy              =   -6934.49592542 Ry
     Harris-Foulkes estimate   =   -6934.49592551 Ry
     estimated scf accuracy    <       0.00000017 Ry

     The total energy is the sum of the following terms:

     one-electron contribution =  -62615.31970683 Ry
     hartree contribution      =   31349.42145361 Ry
     xc contribution           =   -1869.43391407 Ry
     ewald contribution        =   26200.98855572 Ry
     smearing contrib. (-TS)   =      -0.15231385 Ry

     convergence has been achieved in  18 iterations

     Forces acting on atoms (Ry/au):

     negative rho (up, down):  5.646E+00 0.000E+00
     atom    1 type  1   force =    -0.00006450    0.00005714   -0.01965774
     atom    2 type  1   force =    -0.00004726    0.00011451    0.01979929
     atom    3 type  1   force =    -0.00013582    0.00027445   -0.01985463
     atom    4 type  1   force =    -0.00016161   -0.00081819    0.01960165
     atom    5 type  1   force =     0.00006017   -0.00031440   -0.02025919
     atom    6 type  1   force =    -0.00112125    0.00024943    0.01974623
     atom    7 type  1   force =    -0.00002200   -0.00013668   -0.01976595
     atom    8 type  1   force =     0.00015332   -0.00010059    0.01998319
     atom    9 type  1   force =     0.00004262    0.00007584   -0.01977502
     atom   10 type  1   force =     0.00003045    0.00003833    0.01988409
     atom   11 type  1   force =    -0.00004675   -0.00040357   -0.01979126
     atom   12 type  1   force =     0.00018858   -0.00080680    0.02002570
     atom   13 type  1   force =     0.00054450    0.00024423   -0.01945996
     atom   14 type  1   force =     0.00013283    0.00018458    0.02114101
     atom   15 type  1   force =    -0.00032266    0.00014362   -0.01980356
     atom   16 type  1   force =    -0.00092505    0.00111453    0.01891152
     atom   17 type  1   force =     0.00035502    0.00012957   -0.02006206
     atom   18 type  1   force =    -0.00010749   -0.00012121    0.01959787
     atom   19 type  1   force =     0.00012504    0.00020164   -0.01998151
     atom   20 type  1   force =    -0.00001350   -0.00002356    0.01973509
     atom   21 type  1   force =    -0.00060037    0.00035581   -0.01901391
     atom   22 type  1   force =     0.00071199    0.00030697    0.01964145
     atom   23 type  1   force =     0.00005270   -0.00036097   -0.01986856
     atom   24 type  1   force =     0.00063446    0.00053876    0.01913032
     atom   25 type  1   force =    -0.00032595   -0.00009162   -0.01964976
     atom   26 type  1   force =     0.00013470   -0.00000118    0.01975018
     atom   27 type  1   force =     0.00004761   -0.00002242   -0.01979176
     atom   28 type  1   force =     0.00000611    0.00013089    0.01953196
     atom   29 type  1   force =    -0.00017905   -0.00014262   -0.01996884
     atom   30 type  1   force =     0.00004091   -0.00003771    0.01974362
     atom   31 type  1   force =     0.00033076    0.00018637   -0.01954920
     atom   32 type  1   force =    -0.00005480   -0.00004205    0.01971706
     atom   33 type  2   force =    -0.00020465    0.00004818   -0.00133161
     atom   34 type  2   force =    -0.00066374   -0.00003330   -0.00017071
     atom   35 type  2   force =     0.00009373    0.00000698    0.00081479
     atom   36 type  2   force =     0.00067298   -0.00070492   -0.00014255
     atom   37 type  3   force =    -0.00030591    0.00051216   -0.00021362
     atom   38 type  3   force =     0.00013111    0.00021029    0.00014980
     atom   39 type  3   force =     0.00020803    0.00078779    0.00016010
     atom   40 type  3   force =     0.00015799   -0.00045216    0.00033841
     atom   41 type  3   force =    -0.00021231   -0.00028629   -0.00012118
     atom   42 type  4   force =     0.00021232   -0.00006145   -0.00033804
     atom   43 type  4   force =    -0.00032588   -0.00070199   -0.00063353
     atom   44 type  4   force =     0.00056679   -0.00033089    0.00046446
     atom   45 type  4   force =     0.00038537    0.00023632    0.00104816
     atom   46 type  4   force =     0.00023325   -0.00013672   -0.00054989
     atom   47 type  4   force =    -0.00041280   -0.00001711    0.00083811

     Total force =     0.111858     Total SCF correction =     0.000788
 !ASE

     Writing output data file calc.save

     General routines

     Parallel routines

   This run was terminated on:  15:19: 5   8Apr2019

   JOB DONE.