     Program PWSCF v.5.1rc2 starts on  9Feb2019 at 22:47:19

     Current dimensions of program PWSCF are:
     Max number of different atomic species (ntypx) = 10
     Max number of k-points (npk) =  40000
     Max angular momentum in pseudopotentials (lmaxx) =  3

     IMPORTANT: XC functional enforced from input :
     Exchange-correlation      = PBE ( 1  4  3  4 0)
     Any further DFT definition will be discarded
     Please, verify this is what you really want

     Subspace diagonalization in iterative solution of the eigenvalue problem:
     a serial algorithm will be used

     bravais-lattice index     =            0
     lattice parameter (alat)  =       1.8897  a.u.
     unit-cell volume          =   23466.3494 (a.u.)^3
     number of atoms/cell      =           47
     number of atomic types    =            4
     number of electrons       =       658.00
     number of Kohn-Sham states=          339
     kinetic-energy cutoff     =      40.4243  Ry
     charge density cutoff     =     330.7439  Ry
     convergence threshold     =      7.3E-07
     mixing beta               =       0.2000
     number of iterations used =            8  local-TF  mixing
     Exchange-correlation      = PBE ( 1  4  3  4 0)
     nstep                     =           50

     celldm(1)=   1.889726  celldm(2)=   0.000000  celldm(3)=   0.000000
     celldm(4)=   0.000000  celldm(5)=   0.000000  celldm(6)=   0.000000

     crystal axes: (cart. coord. in units of alat)
               a(1) = (  11.534892   0.000000   0.000000 )
               a(2) = (  -5.767446   9.989509   0.000000 )
               a(3) = (   0.000000   0.000000  30.178057 )

     reciprocal axes: (cart. coord. in units 2 pi/alat)
               b(1) = (  0.086693  0.050053  0.000000 )
               b(2) = (  0.000000  0.100105  0.000000 )
               b(3) = (  0.000000  0.000000  0.033137 )

     PseudoPot. # 1 for Au read from file:
     /gpfs/pace1/project/chbe-medford/medford-share/data/pseudos/SSSP_eff_PBE/Au.UPF
     MD5 check sum: 1009843a674e36925f098327e430af60
     Pseudo is Norm-conserving, Zval = 19.0
     Generated using ONCVPSP code by D. R. Hamann
     Using radial grid of  602 points,  8 beta functions with:
                l(1) =   0
                l(2) =   0
                l(3) =   1
                l(4) =   1
                l(5) =   2
                l(6) =   2
                l(7) =   3
                l(8) =   3

     PseudoPot. # 2 for O  read from file:
     /gpfs/pace1/project/chbe-medford/medford-share/data/pseudos/SSSP_eff_PBE/O.UPF
     MD5 check sum: 734c27235a0248c51dbae37a1fbe46ec
     Pseudo is Ultrasoft + core correction, Zval =  6.0
     Generated by new atomic code, or converted to UPF format
     Using radial grid of  737 points,  5 beta functions with:
                l(1) =   0
                l(2) =   0
                l(3) =   1
                l(4) =   1
                l(5) =   2
     Q(r) pseudized with  8 coefficients,  rinner =    0.900   0.900   0.900
                                                       0.900   0.900

     PseudoPot. # 3 for C  read from file:
     /gpfs/pace1/project/chbe-medford/medford-share/data/pseudos/SSSP_eff_PBE/C.UPF
     MD5 check sum: d1aef80898a10debaa0f26306b886e00
     Pseudo is Ultrasoft + core correction, Zval =  4.0
     Generated by new atomic code, or converted to UPF format
     Using radial grid of  721 points,  4 beta functions with:
                l(1) =   0
                l(2) =   0
                l(3) =   1
                l(4) =   1
     Q(r) pseudized with  8 coefficients,  rinner =    1.100   1.100   1.100

     PseudoPot. # 4 for  H read from file:
     /gpfs/pace1/project/chbe-medford/medford-share/data/pseudos/SSSP_eff_PBE/H.UPF
     MD5 check sum: 36633979392af7100e6f6632747262d3
     Pseudo is Ultrasoft, Zval =  1.0
     Generated using "atomic" code by A. Dal Corso  v.5.0.99 svn rev. 10869
     Using radial grid of  929 points,  2 beta functions with:
                l(1) =   0
                l(2) =   0
     Q(r) pseudized with 0 coefficients

     atomic species   valence    mass     pseudopotential
        Au1           19.00   196.96650     Au( 1.00)
        O1             6.00    15.99940     O ( 1.00)
        C1             4.00    12.01100     C ( 1.00)
        H1             1.00     1.00794      H( 1.00)

     No symmetry found

   Cartesian axes

     site n.     atom                  positions (alat units)
         1           Au1 tau(   1) = (   0.0000000   0.0000000  10.0000000  )
         2           Au1 tau(   2) = (   1.4418614   0.8324591  12.3545499  )
         3           Au1 tau(   3) = (  -1.4418614   2.4973773  10.0000000  )
         4           Au1 tau(   4) = (   0.0000000   3.3298364  12.3545499  )
         5           Au1 tau(   5) = (  -2.8837229   4.9947545  10.0000000  )
         6           Au1 tau(   6) = (  -1.4418614   5.8272136  12.3545499  )
         7           Au1 tau(   7) = (  -4.3255843   7.4921318  10.0000000  )
         8           Au1 tau(   8) = (  -2.8837229   8.3245909  12.3545499  )
         9           Au1 tau(   9) = (   2.8837229   0.0000000  10.0000000  )
        10           Au1 tau(  10) = (   4.3255843   0.8324591  12.3545499  )
        11           Au1 tau(  11) = (   1.4418614   2.4973773  10.0000000  )
        12           Au1 tau(  12) = (   2.8837229   3.3298364  12.3545499  )
        13           Au1 tau(  13) = (   0.0000000   4.9947545  10.0000000  )
        14           Au1 tau(  14) = (   1.4418614   5.8272136  12.3545499  )
        15           Au1 tau(  15) = (  -1.4418614   7.4921318  10.0000000  )
        16           Au1 tau(  16) = (   0.0000000   8.3245909  12.3545499  )
        17           Au1 tau(  17) = (   5.7674458   0.0000000  10.0000000  )
        18           Au1 tau(  18) = (   7.2093072   0.8324591  12.3545499  )
        19           Au1 tau(  19) = (   4.3255843   2.4973773  10.0000000  )
        20           Au1 tau(  20) = (   5.7674458   3.3298364  12.3545499  )
        21           Au1 tau(  21) = (   2.8837229   4.9947545  10.0000000  )
        22           Au1 tau(  22) = (   4.3255843   5.8272136  12.3545499  )
        23           Au1 tau(  23) = (   1.4418614   7.4921318  10.0000000  )
        24           Au1 tau(  24) = (   2.8837229   8.3245909  12.3545499  )
        25           Au1 tau(  25) = (   8.6511686   0.0000000  10.0000000  )
        26           Au1 tau(  26) = (  10.0930301   0.8324591  12.3545499  )
        27           Au1 tau(  27) = (   7.2093072   2.4973773  10.0000000  )
        28           Au1 tau(  28) = (   8.6511686   3.3298364  12.3545499  )
        29           Au1 tau(  29) = (   5.7674458   4.9947545  10.0000000  )
        30           Au1 tau(  30) = (   7.2093072   5.8272136  12.3545499  )
        31           Au1 tau(  31) = (   4.3255843   7.4921318  10.0000000  )
        32           Au1 tau(  32) = (   5.7674458   8.3245909  12.3545499  )
        33           O1  tau(  33) = (   2.8840000   4.9950000  14.8545499  )
        34           O1  tau(  34) = (   4.8970351   6.2745000  18.4298289  )
        35           O1  tau(  35) = (   2.0632300   4.6421000  16.9467345  )
        36           O1  tau(  36) = (   4.9632155   4.8279000  20.1780568  )
        37           C1  tau(  37) = (   4.4526743   4.3781000  16.4933734  )
        38           C1  tau(  38) = (   4.6202348   4.0026000  17.9391968  )
        39           C1  tau(  39) = (   3.0044576   4.6687000  16.1679885  )
        40           C1  tau(  40) = (   4.8420857   5.0396000  18.9810537  )
        41           C1  tau(  41) = (   4.5481491   2.7298000  18.3579407  )
        42           H1  tau(  42) = (   5.0662465   5.2463000  16.2323117  )
        43           H1  tau(  43) = (   4.7767627   3.5470000  15.8543111  )
        44           H1  tau(  44) = (   4.3740862   1.9232000  17.6524549  )
        45           H1  tau(  45) = (   4.6565197   2.4476000  19.3998440  )
        46           H1  tau(  46) = (   1.9555546   5.1987000  14.6124353  )
        47           H1  tau(  47) = (   5.0439563   6.9717000  19.1041040  )

     number of k points=     4  Fermi-Dirac smearing, width (Ry)=  0.0073
                       cart. coord. in units 2pi/alat
        k(    1) = (   0.0000000   0.0000000   0.0000000), wk =   0.5000000
        k(    2) = (   0.0000000  -0.0500525   0.0000000), wk =   0.5000000
        k(    3) = (   0.0433467  -0.0250263   0.0000000), wk =   0.5000000
        k(    4) = (  -0.0433467  -0.0250263   0.0000000), wk =   0.5000000

     Largest allocated arrays     est. size (Mb)     dimensions
     Largest temporary arrays     est. size (Mb)     dimensions

     Initial potential from superposition of free atoms
     Check: negative starting charge=   -0.002317

     starting charge  657.28107, renormalised to  658.00000

     negative rho (up, down):  2.320E-03 0.000E+00
     Starting wfc are   42 randomized atomic wfcs +  297 random wfc

     Self-consistent Calculation

     iteration #  1     ecut=    40.42 Ry     beta=0.20
     Davidson diagonalization with overlap
     ethr =  1.00E-02,  avg # of iterations = 12.0

     Threshold (ethr) on eigenvalues was too large:
     Diagonalizing with lowered threshold

     Davidson diagonalization with overlap
     ethr =  6.22E-04,  avg # of iterations =  1.0

     negative rho (up, down):  7.573E-05 0.000E+00

     total energy              =   -8984.50892660 Ry
     Harris-Foulkes estimate   =   -8984.83908877 Ry
     estimated scf accuracy    <       4.09191158 Ry

[...]

     End of self-consistent calculation

          k = 0.0000 0.0000 0.0000 (101779 PWs)   bands (ev):

  -106.5330-106.4667-106.4577-106.4548-106.4512-106.4489-106.4484-106.4475
  -106.4463-106.4457-106.4443-106.4438-106.4436-106.4430-106.4426-106.4417
  -106.4417-106.4409-106.4407-106.4402-106.4401-106.4392-106.4390-106.4389
  -106.4382-106.4379-106.4374-106.4369-106.4363-106.4350-106.4348-106.4322
   -57.9192 -57.9164 -57.8979 -57.8882 -57.8857 -57.8825 -57.8749 -57.8729
   -57.8645 -57.8633 -57.8618 -57.8608 -57.8586 -57.8583 -57.8554 -57.8548
   -57.8535 -57.8527 -57.8295 -57.8278 -57.8146 -57.8139 -57.8130 -57.8113
   -57.8067 -57.8059 -57.8047 -57.8030 -57.8024 -57.8005 -57.7991 -57.7984
   -57.7977 -57.7969 -57.7965 -57.7954 -57.7865 -57.7857 -57.7842 -57.7830
   -57.7821 -57.7815 -57.7765 -57.7744 -57.7737 -57.7574 -57.7564 -57.7517
   -57.7509 -57.7494 -57.7492 -57.7486 -57.7476 -57.7461 -57.7408 -57.7332
   -57.7311 -57.7288 -57.7281 -57.7270 -57.7262 -57.7256 -57.7255 -57.7093
   -57.7091 -57.6886 -57.6715 -57.6656 -57.6640 -57.6638 -57.6623 -57.6533
   -57.6398 -57.6350 -57.6319 -57.6312 -57.6304 -57.6296 -57.6286 -57.6271
   -57.6153 -57.6004 -57.5961 -57.5952 -57.5947 -57.5939 -57.5928 -57.5920
   -57.5904 -57.5862 -57.5835 -57.5828 -57.5819 -57.5808 -57.5805 -57.5784
   -23.8481 -23.5070 -21.5145 -21.1123 -16.5923 -14.3687 -12.6902 -11.6947
    -9.8004  -9.5314  -8.4677  -8.3867  -8.0967  -8.0421  -7.9854  -7.9830
    -7.9812  -7.9801  -7.9790  -7.8920  -7.5776  -7.3972  -7.3940  -7.3907
    -7.3637  -7.3558  -7.3513  -7.2742  -6.9380  -6.9299  -6.9290  -6.9274
[...]

     crystal axes: (cart. coord. in units of alat)
               a(1) = (  11.534892   0.000000   0.000000 )
               a(2) = (  -5.767446   9.989509   0.000000 )
               a(3) = (   0.000000   0.000000  30.178057 )

     reciprocal axes: (cart. coord. in units 2 pi/alat)
               b(1) = (  0.086693  0.050053  0.000000 )
               b(2) = (  0.000000  0.100105  0.000000 )
               b(3) = (  0.000000  0.000000  0.033137 )

     PseudoPot. # 1 for Au read from file:
     /gpfs/pace1/project/chbe-medford/medford-share/data/pseudos/SSSP_eff_PBE/Au.UPF
     MD5 check sum: 1009843a674e36925f098327e430af60
     Pseudo is Norm-conserving, Zval = 19.0
     Generated using ONCVPSP code by D. R. Hamann
     Using radial grid of  602 points,  8 beta functions with:
                l(1) =   0
                l(2) =   0
                l(3) =   1
                l(4) =   1
                l(5) =   2
                l(6) =   2
                l(7) =   3
                l(8) =   3

     PseudoPot. # 2 for O  read from file:
     /gpfs/pace1/project/chbe-medford/medford-share/data/pseudos/SSSP_eff_PBE/O.UPF
     MD5 check sum: 734c27235a0248c51dbae37a1fbe46ec
     Pseudo is Ultrasoft + core correction, Zval =  6.0
     Generated by new atomic code, or converted to UPF format
     Using radial grid of  737 points,  5 beta functions with:
                l(1) =   0
                l(2) =   0
                l(3) =   1
                l(4) =   1
                l(5) =   2
     Q(r) pseudized with  8 coefficients,  rinner =    0.900   0.900   0.900
                                                       0.900   0.900

     PseudoPot. # 3 for C  read from file:
     /gpfs/pace1/project/chbe-medford/medford-share/data/pseudos/SSSP_eff_PBE/C.UPF
     MD5 check sum: d1aef80898a10debaa0f26306b886e00
     Pseudo is Ultrasoft + core correction, Zval =  4.0
     Generated by new atomic code, or converted to UPF format
     Using radial grid of  721 points,  4 beta functions with:
                l(1) =   0
                l(2) =   0
                l(3) =   1
                l(4) =   1
     Q(r) pseudized with  8 coefficients,  rinner =    1.100   1.100   1.100

     PseudoPot. # 4 for  H read from file:
     /gpfs/pace1/project/chbe-medford/medford-share/data/pseudos/SSSP_eff_PBE/H.UPF
     MD5 check sum: 36633979392af7100e6f6632747262d3
     Pseudo is Ultrasoft, Zval =  1.0
     Generated using "atomic" code by A. Dal Corso  v.5.0.99 svn rev. 10869
     Using radial grid of  929 points,  2 beta functions with:
                l(1) =   0
                l(2) =   0
     Q(r) pseudized with 0 coefficients

     atomic species   valence    mass     pseudopotential
        Au1           19.00   196.96650     Au( 1.00)
        O1             6.00    15.99940     O ( 1.00)
        C1             4.00    12.01100     C ( 1.00)
        H1             1.00     1.00794      H( 1.00)

     No symmetry found

   Cartesian axes

     site n.     atom                  positions (alat units)
         1           Au1 tau(   1) = (   0.0000000   0.0000000  10.0000000  )
         2           Au1 tau(   2) = (   1.4418614   0.8324591  12.3545499  )
         3           Au1 tau(   3) = (  -1.4418614   2.4973773  10.0000000  )
         4           Au1 tau(   4) = (   0.0000000   3.3298364  12.3545499  )
         5           Au1 tau(   5) = (  -2.8837229   4.9947545  10.0000000  )
         6           Au1 tau(   6) = (  -1.4418614   5.8272136  12.3545499  )
         7           Au1 tau(   7) = (  -4.3255843   7.4921318  10.0000000  )
         8           Au1 tau(   8) = (  -2.8837229   8.3245909  12.3545499  )
         9           Au1 tau(   9) = (   2.8837229   0.0000000  10.0000000  )
        10           Au1 tau(  10) = (   4.3255843   0.8324591  12.3545499  )
        11           Au1 tau(  11) = (   1.4418614   2.4973773  10.0000000  )
        12           Au1 tau(  12) = (   2.8837229   3.3298364  12.3545499  )
        13           Au1 tau(  13) = (   0.0000000   4.9947545  10.0000000  )
        14           Au1 tau(  14) = (   1.4418614   5.8272136  12.3545499  )
        15           Au1 tau(  15) = (  -1.4418614   7.4921318  10.0000000  )
        16           Au1 tau(  16) = (   0.0000000   8.3245909  12.3545499  )
        17           Au1 tau(  17) = (   5.7674458   0.0000000  10.0000000  )
        18           Au1 tau(  18) = (   7.2093072   0.8324591  12.3545499  )
        19           Au1 tau(  19) = (   4.3255843   2.4973773  10.0000000  )
        20           Au1 tau(  20) = (   5.7674458   3.3298364  12.3545499  )
        21           Au1 tau(  21) = (   2.8837229   4.9947545  10.0000000  )
        22           Au1 tau(  22) = (   4.3255843   5.8272136  12.3545499  )
        23           Au1 tau(  23) = (   1.4418614   7.4921318  10.0000000  )
        24           Au1 tau(  24) = (   2.8837229   8.3245909  12.3545499  )
        25           Au1 tau(  25) = (   8.6511686   0.0000000  10.0000000  )
        26           Au1 tau(  26) = (  10.0930301   0.8324591  12.3545499  )
        27           Au1 tau(  27) = (   7.2093072   2.4973773  10.0000000  )
        28           Au1 tau(  28) = (   8.6511686   3.3298364  12.3545499  )
        29           Au1 tau(  29) = (   5.7674458   4.9947545  10.0000000  )
        30           Au1 tau(  30) = (   7.2093072   5.8272136  12.3545499  )
        31           Au1 tau(  31) = (   4.3255843   7.4921318  10.0000000  )
        32           Au1 tau(  32) = (   5.7674458   8.3245909  12.3545499  )
        33           O1  tau(  33) = (   2.8837521   5.0914234  15.0211595  )
        34           O1  tau(  34) = (   4.8782091   6.2555113  18.4882002  )
        35           O1  tau(  35) = (   2.0504129   4.6261734  17.0501758  )
        36           O1  tau(  36) = (   5.0057556   4.8229112  20.2404024  )
        37           C1  tau(  37) = (   4.4286051   4.3447665  16.5766800  )
        38           C1  tau(  38) = (   4.6398338   3.9743718  18.0145872  )
        39           C1  tau(  39) = (   2.9934125   4.6879902  16.2866901  )
        40           C1  tau(  40) = (   4.8610289   5.0221023  19.0474878  )
        41           C1  tau(  41) = (   4.6189954   2.7062215  18.4267963  )
        42           H1  tau(  42) = (   5.0588310   5.1800139  16.2817995  )
        43           H1  tau(  43) = (   4.7004192   3.5011985  15.9476184  )
        44           H1  tau(  44) = (   4.4562266   1.8947665  17.7237320  )
        45           H1  tau(  45) = (   4.7712686   2.4350102  19.4623766  )
        46           H1  tau(  46) = (   1.9580544   5.3207444  14.8124353  )
        47           H1  tau(  47) = (   5.0288739   6.9495294  19.1631555  )

     number of k points=    10  Fermi-Dirac smearing, width (Ry)=  0.0073
                       cart. coord. in units 2pi/alat
        k(    1) = (   0.0000000   0.0000000   0.0000000), wk =   0.1250000
        k(    2) = (   0.0000000   0.0250263   0.0000000), wk =   0.2500000
        k(    3) = (   0.0000000  -0.0500525   0.0000000), wk =   0.1250000
        k(    4) = (   0.0216734   0.0375394   0.0000000), wk =   0.2500000
        k(    5) = (  -0.0216734   0.0125131   0.0000000), wk =   0.2500000
        k(    6) = (   0.0216734   0.0125131   0.0000000), wk =   0.2500000
        k(    7) = (   0.0433467  -0.0250263   0.0000000), wk =   0.1250000
        k(    8) = (  -0.0433467  -0.0250263   0.0000000), wk =   0.1250000
        k(    9) = (  -0.0216734   0.0375394   0.0000000), wk =   0.2500000
        k(   10) = (   0.0433467   0.0000000   0.0000000), wk =   0.2500000

     Largest allocated arrays     est. size (Mb)     dimensions
     Largest temporary arrays     est. size (Mb)     dimensions

     Initial potential from superposition of free atoms
     Check: negative starting charge=   -0.002319

     starting charge  657.28107, renormalised to  658.00000

     negative rho (up, down):  2.322E-03 0.000E+00
     Starting wfc are   42 randomized atomic wfcs +  297 random wfc

[...]

     Threshold (ethr) on eigenvalues was too large:
     Diagonalizing with lowered threshold

     Davidson diagonalization with overlap
     ethr =  3.38E-04,  avg # of iterations =  1.9

[...]

     iteration #  9     ecut=    40.42 Ry     beta=0.15
     Davidson diagonalization with overlap
     c_bands:  1 eigenvalues not converged
     c_bands:  1 eigenvalues not converged
     ethr =  2.37E-06,  avg # of iterations =  9.3

[...]

     Self-consistent Calculation

[...]

     total energy              =   -8984.21962466 Ry
     Harris-Foulkes estimate   =   -8984.21962480 Ry
     estimated scf accuracy    <       0.00000073 Ry

     iteration # 16     ecut=    40.42 Ry     beta=0.15
     Davidson diagonalization with overlap
     ethr =  1.11E-10,  avg # of iterations =  3.8

[...]

     End of self-consistent calculation

[...]

          k =-0.0217 0.0375 0.0000 (101920 PWs)   bands (ev):

[...]

          k = 0.0433 0.0000 0.0000 (101920 PWs)   bands (ev):

  -106.3506-106.2985-106.2964-106.2956-106.2928-106.2920-106.2906-106.2902
  -106.2883-106.2876-106.2867-106.2865-106.2861-106.2857-106.2850-106.2845
  -106.2841-106.2836-106.2833-106.2830-106.2825-106.2822-106.2818-106.2815
  -106.2811-106.2805-106.2803-106.2800-106.2794-106.2790-106.2786-106.2761
   -57.7343 -57.7297 -57.7178 -57.7124 -57.7108 -57.7084 -57.7052 -57.7032
   -57.6999 -57.6992 -57.6970 -57.6962 -57.6951 -57.6918 -57.6897 -57.6885
   -57.6869 -57.6803 -57.6780 -57.6774 -57.6708 -57.6687 -57.6643 -57.6550
   -57.6504 -57.6473 -57.6426 -57.6419 -57.6385 -57.6381 -57.6251 -57.6183
   -57.6162 -57.6133 -57.6113 -57.6098 -57.6073 -57.6038 -57.6023 -57.6012
   -57.5994 -57.5983 -57.5974 -57.5944 -57.5915 -57.5908 -57.5892 -57.5889
   -57.5880 -57.5852 -57.5828 -57.5813 -57.5788 -57.5782 -57.5760 -57.5745
   -57.5720 -57.5704 -57.5700 -57.5694 -57.5662 -57.5612 -57.5526 -57.5522
   -57.5462 -57.5454 -57.5421 -57.5358 -57.5269 -57.5213 -57.5176 -57.5138
   -57.5106 -57.5066 -57.5050 -57.5040 -57.4971 -57.4928 -57.4906 -57.4840
   -57.4758 -57.4712 -57.4662 -57.4638 -57.4618 -57.4597 -57.4577 -57.4567
   -57.4551 -57.4541 -57.4533 -57.4511 -57.4498 -57.4480 -57.4473 -57.4454
   -23.8978 -23.6847 -21.5748 -21.3135 -16.6159 -14.3441 -12.5335 -11.4050
    -9.6000  -9.0241  -8.5957  -8.5778  -8.3735  -8.3094  -7.9979  -7.7026
    -7.5679  -7.5364  -7.5311  -7.3894  -7.2636  -7.2620  -7.1887  -7.1884
    -7.1719  -7.1686  -7.0607  -6.9853  -6.9833  -6.9696  -6.9688  -6.9166
    -6.8792  -6.8657  -6.8059  -6.8035  -6.6462  -6.6439  -6.6174  -6.6144
    -6.5142  -6.5117  -6.4939  -6.4901  -6.4640  -6.4630  -6.3988  -6.3952
    -6.3382  -6.3377  -6.3258  -6.3205  -6.2845  -6.2822  -6.2752  -6.1342
    -6.0960  -6.0458  -6.0425  -6.0268  -5.9167  -5.9111  -5.8375  -5.6286
    -5.6253  -5.5756  -5.5456  -5.5444  -5.4528  -5.4302  -5.4272  -5.4018
    -5.3979  -5.3923  -5.3888  -5.3165  -5.3128  -5.2998  -5.2949  -5.2866
    -5.2843  -5.2810  -5.2555  -5.2514  -5.2190  -5.2143  -5.1946  -5.1905
    -5.1464  -5.0623  -5.0539  -5.0513  -5.0024  -4.9299  -4.9149  -4.9113
    -4.8673  -4.8470  -4.8282  -4.8000  -4.7929  -4.7887  -4.7471  -4.6624
    -4.6599  -4.6282  -4.6262  -4.6041  -4.6022  -4.5797  -4.5787  -4.5431
    -4.5211  -4.5161  -4.4403  -4.4366  -4.4288  -4.4269  -4.3956  -4.3915
    -4.2689  -4.2668  -4.1630  -4.1460  -4.1353  -4.1335  -4.1257  -4.0573
    -4.0291  -4.0183  -4.0065  -3.9892  -3.9386  -3.9256  -3.9102  -3.8122
    -3.7776  -3.7354  -3.7242  -3.7142  -3.6673  -3.6659  -3.6574  -3.6234
    -3.6151  -3.6113  -3.6080  -3.5926  -3.5391  -3.5351  -3.5321  -3.5272
    -3.5021  -3.5001  -3.4427  -3.3347  -3.3261  -3.3115  -3.3054  -3.2956
    -3.2941  -3.2640  -3.2632  -3.2360  -3.2214  -3.2192  -3.1920  -3.1858
    -3.1134  -3.1120  -3.0967  -3.0939  -3.0695  -3.0349  -3.0298  -3.0249
    -3.0236  -2.9848  -2.9517  -2.9488  -2.9134  -2.9025  -2.9010  -2.8624
    -2.8206  -2.8147  -2.7887  -2.7405  -2.7392  -2.7223  -2.7161  -2.6163
    -2.5608  -2.4431  -2.4308  -2.3731  -1.8077  -1.8041  -1.7152  -1.7142
    -1.5855  -1.5699  -0.8783  -0.7525  -0.7454   0.1753   0.1857   0.3072
     0.3163   0.4056   0.7184

     the Fermi energy is    -1.2431 ev

!    total energy              =   -8984.21962539 Ry
     Harris-Foulkes estimate   =   -8984.21962474 Ry
     estimated scf accuracy    <       0.00000032 Ry

     The total energy is the sum of the following terms:

     one-electron contribution =  -83114.48119282 Ry
     hartree contribution      =   41383.43213416 Ry
     xc contribution           =    -862.03702864 Ry
     ewald contribution        =   33608.88032720 Ry
     smearing contrib. (-TS)   =      -0.01386529 Ry

     convergence has been achieved in  16 iterations

     Forces acting on atoms (Ry/au):

     negative rho (up, down):  3.914E-03 0.000E+00
     atom    1 type  1   force =    -0.00001427   -0.00006682   -0.02406369
     atom    2 type  1   force =    -0.00006397   -0.00005756    0.02393608
     atom    3 type  1   force =     0.00006509   -0.00004849   -0.02388037
     atom    4 type  1   force =    -0.00012950    0.00004407    0.02402088
     atom    5 type  1   force =    -0.00015522    0.00005592   -0.02402756
     atom    6 type  1   force =    -0.00007012   -0.00006291    0.02423369
     atom    7 type  1   force =    -0.00001576   -0.00001222   -0.02400874
     atom    8 type  1   force =    -0.00000927   -0.00000277    0.02391609
     atom    9 type  1   force =     0.00000933    0.00001961   -0.02401949
     atom   10 type  1   force =     0.00001813    0.00009110    0.02414198
     atom   11 type  1   force =    -0.00016516    0.00015148   -0.02385690
     atom   12 type  1   force =     0.00010839   -0.00330177    0.02063708
     atom   13 type  1   force =     0.00002489   -0.00020661   -0.02480159
     atom   14 type  1   force =    -0.00600864    0.00279957    0.01506934
     atom   15 type  1   force =     0.00005102   -0.00002641   -0.02402278
     atom   16 type  1   force =     0.00004961    0.00011673    0.02419889
     atom   17 type  1   force =    -0.00009344    0.00004839   -0.02404195
     atom   18 type  1   force =     0.00003160    0.00001155    0.02393547
     atom   19 type  1   force =     0.00013640    0.00006956   -0.02370694
     atom   20 type  1   force =     0.00029282   -0.00029116    0.02353643
     atom   21 type  1   force =    -0.00005893    0.00006745   -0.02390063
     atom   22 type  1   force =     0.00308422    0.00159501    0.02021721
     atom   23 type  1   force =     0.00019703   -0.00000270   -0.02457560
     atom   24 type  1   force =    -0.00010853    0.00041294    0.02349611
     atom   25 type  1   force =     0.00010118    0.00001060   -0.02395095
     atom   26 type  1   force =     0.00001872   -0.00000078    0.02394130
     atom   27 type  1   force =    -0.00004708    0.00007563   -0.02435900
     atom   28 type  1   force =    -0.00003013   -0.00003516    0.02393825
     atom   29 type  1   force =     0.00004944   -0.00018422   -0.02326307
     atom   30 type  1   force =     0.00000165   -0.00001907    0.02398314
     atom   31 type  1   force =    -0.00020765    0.00006429   -0.02324399
     atom   32 type  1   force =     0.00001703    0.00007005    0.02382074
     atom   33 type  2   force =     0.00472415   -0.00251820    0.00600752
     atom   34 type  2   force =    -0.00008325   -0.00666020   -0.00820427
     atom   35 type  2   force =     0.00560358   -0.00017567   -0.01079980
     atom   36 type  2   force =     0.00468821   -0.00747416    0.02610115
     atom   37 type  3   force =     0.00247349   -0.00067793    0.00037294
     atom   38 type  3   force =    -0.00160808    0.05731959   -0.02007473
     atom   39 type  3   force =     0.00918255   -0.00217756    0.02121371
     atom   40 type  3   force =    -0.00841002   -0.00886048   -0.02684985
     atom   41 type  3   force =     0.00132599   -0.05721494    0.03373793
     atom   42 type  4   force =    -0.00227799   -0.00246703    0.00064903
     atom   43 type  4   force =    -0.00158324    0.00148596    0.00379917
     atom   44 type  4   force =    -0.00094156   -0.00173934   -0.00710883
     atom   45 type  4   force =     0.00176852    0.00809102   -0.00578510
     atom   46 type  4   force =    -0.01344836    0.00613029   -0.00392119
     atom   47 type  4   force =     0.00150714    0.01555336    0.00756290

     Total force =     0.170607     Total SCF correction =     0.001323
 !ASE

     Writing output data file calc.save
     Check: negative starting charge=   -0.002320
     NEW-OLD atomic charge density approx. for the potential
     Check: negative starting charge=   -0.002315

     negative rho (up, down):  3.978E-03 0.000E+00