     Program PWSCF v.5.1rc2 starts on  9Feb2019 at 22:47:46

     Current dimensions of program PWSCF are:
     Max number of different atomic species (ntypx) = 10
     Max number of k-points (npk) =  40000
     Max angular momentum in pseudopotentials (lmaxx) =  3

     IMPORTANT: XC functional enforced from input :
     Exchange-correlation      = PBE ( 1  4  3  4 0)
     Any further DFT definition will be discarded
     Please, verify this is what you really want

     Subspace diagonalization in iterative solution of the eigenvalue problem:
     a serial algorithm will be used

     bravais-lattice index     =            0
     lattice parameter (alat)  =       1.8897  a.u.
     unit-cell volume          =   23466.3494 (a.u.)^3
     number of atoms/cell      =           47
     number of atomic types    =            4
     number of electrons       =       658.00
     number of Kohn-Sham states=          339
     kinetic-energy cutoff     =      40.4243  Ry
     charge density cutoff     =     330.7439  Ry
     convergence threshold     =      7.3E-07
     mixing beta               =       0.2000
     number of iterations used =            8  local-TF  mixing
     Exchange-correlation      = PBE ( 1  4  3  4 0)
     nstep                     =           50

     celldm(1)=   1.889726  celldm(2)=   0.000000  celldm(3)=   0.000000
     celldm(4)=   0.000000  celldm(5)=   0.000000  celldm(6)=   0.000000

     crystal axes: (cart. coord. in units of alat)
               a(1) = (  11.534892   0.000000   0.000000 )
               a(2) = (  -5.767446   9.989509   0.000000 )
               a(3) = (   0.000000   0.000000  30.178057 )

     reciprocal axes: (cart. coord. in units 2 pi/alat)
               b(1) = (  0.086693  0.050053  0.000000 )
               b(2) = (  0.000000  0.100105  0.000000 )
               b(3) = (  0.000000  0.000000  0.033137 )

     PseudoPot. # 1 for Au read from file:
     /gpfs/pace1/project/chbe-medford/medford-share/data/pseudos/SSSP_eff_PBE/Au.UPF
     MD5 check sum: 1009843a674e36925f098327e430af60
     Pseudo is Norm-conserving, Zval = 19.0
     Generated using ONCVPSP code by D. R. Hamann
     Using radial grid of  602 points,  8 beta functions with:
                l(1) =   0
                l(2) =   0
                l(3) =   1
                l(4) =   1
                l(5) =   2
                l(6) =   2
                l(7) =   3
                l(8) =   3

     PseudoPot. # 2 for O  read from file:
     /gpfs/pace1/project/chbe-medford/medford-share/data/pseudos/SSSP_eff_PBE/O.UPF
     MD5 check sum: 734c27235a0248c51dbae37a1fbe46ec
     Pseudo is Ultrasoft + core correction, Zval =  6.0
     Generated by new atomic code, or converted to UPF format
     Using radial grid of  737 points,  5 beta functions with:
                l(1) =   0
                l(2) =   0
                l(3) =   1
                l(4) =   1
                l(5) =   2
     Q(r) pseudized with  8 coefficients,  rinner =    0.900   0.900   0.900
                                                       0.900   0.900

     PseudoPot. # 3 for C  read from file:
     /gpfs/pace1/project/chbe-medford/medford-share/data/pseudos/SSSP_eff_PBE/C.UPF
     MD5 check sum: d1aef80898a10debaa0f26306b886e00
     Pseudo is Ultrasoft + core correction, Zval =  4.0
     Generated by new atomic code, or converted to UPF format
     Using radial grid of  721 points,  4 beta functions with:
                l(1) =   0
                l(2) =   0
                l(3) =   1
                l(4) =   1
     Q(r) pseudized with  8 coefficients,  rinner =    1.100   1.100   1.100

     PseudoPot. # 4 for  H read from file:
     /gpfs/pace1/project/chbe-medford/medford-share/data/pseudos/SSSP_eff_PBE/H.UPF
     MD5 check sum: 36633979392af7100e6f6632747262d3
     Pseudo is Ultrasoft, Zval =  1.0
     Generated using "atomic" code by A. Dal Corso  v.5.0.99 svn rev. 10869
     Using radial grid of  929 points,  2 beta functions with:
                l(1) =   0
                l(2) =   0
     Q(r) pseudized with 0 coefficients

     atomic species   valence    mass     pseudopotential
        Au1           19.00   196.96650     Au( 1.00)
        O1             6.00    15.99940     O ( 1.00)
        C1             4.00    12.01100     C ( 1.00)
        H1             1.00     1.00794      H( 1.00)

     No symmetry found

   Cartesian axes

     site n.     atom                  positions (alat units)
         1           Au1 tau(   1) = (   0.0000000   0.0000000  10.0000000  )
         2           Au1 tau(   2) = (   1.4418614   0.8324591  12.3545499  )
         3           Au1 tau(   3) = (  -1.4418614   2.4973773  10.0000000  )
         4           Au1 tau(   4) = (   0.0000000   3.3298364  12.3545499  )
         5           Au1 tau(   5) = (  -2.8837229   4.9947545  10.0000000  )
         6           Au1 tau(   6) = (  -1.4418614   5.8272136  12.3545499  )
         7           Au1 tau(   7) = (  -4.3255843   7.4921318  10.0000000  )
         8           Au1 tau(   8) = (  -2.8837229   8.3245909  12.3545499  )
         9           Au1 tau(   9) = (   2.8837229   0.0000000  10.0000000  )
        10           Au1 tau(  10) = (   4.3255843   0.8324591  12.3545499  )
        11           Au1 tau(  11) = (   1.4418614   2.4973773  10.0000000  )
        12           Au1 tau(  12) = (   2.8837229   3.3298364  12.3545499  )
        13           Au1 tau(  13) = (   0.0000000   4.9947545  10.0000000  )
        14           Au1 tau(  14) = (   1.4418614   5.8272136  12.3545499  )
        15           Au1 tau(  15) = (  -1.4418614   7.4921318  10.0000000  )
        16           Au1 tau(  16) = (   0.0000000   8.3245909  12.3545499  )
        17           Au1 tau(  17) = (   5.7674458   0.0000000  10.0000000  )
        18           Au1 tau(  18) = (   7.2093072   0.8324591  12.3545499  )
        19           Au1 tau(  19) = (   4.3255843   2.4973773  10.0000000  )
        20           Au1 tau(  20) = (   5.7674458   3.3298364  12.3545499  )
        21           Au1 tau(  21) = (   2.8837229   4.9947545  10.0000000  )
        22           Au1 tau(  22) = (   4.3255843   5.8272136  12.3545499  )
        23           Au1 tau(  23) = (   1.4418614   7.4921318  10.0000000  )
        24           Au1 tau(  24) = (   2.8837229   8.3245909  12.3545499  )
        25           Au1 tau(  25) = (   8.6511686   0.0000000  10.0000000  )
        26           Au1 tau(  26) = (  10.0930301   0.8324591  12.3545499  )
        27           Au1 tau(  27) = (   7.2093072   2.4973773  10.0000000  )
        28           Au1 tau(  28) = (   8.6511686   3.3298364  12.3545499  )
        29           Au1 tau(  29) = (   5.7674458   4.9947545  10.0000000  )
        30           Au1 tau(  30) = (   7.2093072   5.8272136  12.3545499  )
        31           Au1 tau(  31) = (   4.3255843   7.4921318  10.0000000  )
        32           Au1 tau(  32) = (   5.7674458   8.3245909  12.3545499  )
        33           O1  tau(  33) = (   1.4420000   5.8270000  14.8545499  )
        34           O1  tau(  34) = (   3.4550351   7.1065000  18.4298289  )
        35           O1  tau(  35) = (   0.6212300   5.4741000  16.9467345  )
        36           O1  tau(  36) = (   3.5212155   5.6599000  20.1780568  )
        37           C1  tau(  37) = (   3.0106743   5.2101000  16.4933734  )
        38           C1  tau(  38) = (   3.1782348   4.8346000  17.9391968  )
        39           C1  tau(  39) = (   1.5624576   5.5007000  16.1679885  )
        40           C1  tau(  40) = (   3.4000857   5.8716000  18.9810537  )
        41           C1  tau(  41) = (   3.1061491   3.5618000  18.3579407  )
        42           H1  tau(  42) = (   3.6242465   6.0783000  16.2323117  )
        43           H1  tau(  43) = (   3.3347627   4.3790000  15.8543111  )
        44           H1  tau(  44) = (   2.9320862   2.7552000  17.6524549  )
        45           H1  tau(  45) = (   3.2145197   3.2796000  19.3998440  )
        46           H1  tau(  46) = (   0.5135546   6.0307000  14.6124353  )
        47           H1  tau(  47) = (   3.6019563   7.8037000  19.1041040  )

     number of k points=     4  Fermi-Dirac smearing, width (Ry)=  0.0073
                       cart. coord. in units 2pi/alat
        k(    1) = (   0.0000000   0.0000000   0.0000000), wk =   0.5000000
        k(    2) = (   0.0000000  -0.0500525   0.0000000), wk =   0.5000000
        k(    3) = (   0.0433467  -0.0250263   0.0000000), wk =   0.5000000
        k(    4) = (  -0.0433467  -0.0250263   0.0000000), wk =   0.5000000

     Largest allocated arrays     est. size (Mb)     dimensions
     Largest temporary arrays     est. size (Mb)     dimensions

     Initial potential from superposition of free atoms
     Check: negative starting charge=   -0.002318

     starting charge  657.28107, renormalised to  658.00000

     negative rho (up, down):  2.320E-03 0.000E+00
     Starting wfc are   42 randomized atomic wfcs +  297 random wfc

     Self-consistent Calculation

     iteration #  1     ecut=    40.42 Ry     beta=0.20
     Davidson diagonalization with overlap
     ethr =  1.00E-02,  avg # of iterations = 12.0

     Threshold (ethr) on eigenvalues was too large:
     Diagonalizing with lowered threshold

     Davidson diagonalization with overlap
     ethr =  6.23E-04,  avg # of iterations =  1.8

     negative rho (up, down):  7.607E-05 0.000E+00

     total energy              =   -8984.49792425 Ry
     Harris-Foulkes estimate   =   -8984.82872963 Ry
     estimated scf accuracy    <       4.09560049 Ry

[...]

     End of self-consistent calculation

          k = 0.0000 0.0000 0.0000 (101779 PWs)   bands (ev):

  -106.5129-106.4434-106.4253-106.4224-106.4156-106.4155-106.4129-106.4108
  -106.4107-106.4100-106.4091-106.4085-106.4081-106.4069-106.4062-106.4058
  -106.4056-106.4048-106.4042-106.4036-106.4031-106.4023-106.4017-106.4012
  -106.3997-106.3994-106.3985-106.3979-106.3970-106.3966-106.3961-106.3949
   -57.8988 -57.8919 -57.8633 -57.8515 -57.8499 -57.8477 -57.8396 -57.8385
   -57.8312 -57.8293 -57.8264 -57.8244 -57.8225 -57.8202 -57.8175 -57.8174
   -57.8167 -57.8157 -57.7978 -57.7922 -57.7812 -57.7802 -57.7774 -57.7749
   -57.7728 -57.7697 -57.7680 -57.7663 -57.7658 -57.7643 -57.7639 -57.7627
   -57.7612 -57.7610 -57.7603 -57.7577 -57.7497 -57.7483 -57.7478 -57.7465
   -57.7454 -57.7442 -57.7390 -57.7388 -57.7375 -57.7243 -57.7210 -57.7197
   -57.7167 -57.7142 -57.7130 -57.7117 -57.7109 -57.7107 -57.7098 -57.6962
   -57.6950 -57.6931 -57.6908 -57.6899 -57.6894 -57.6888 -57.6880 -57.6722
   -57.6718 -57.6545 -57.6399 -57.6321 -57.6278 -57.6264 -57.6257 -57.6202
   -57.6055 -57.6016 -57.5969 -57.5944 -57.5938 -57.5933 -57.5919 -57.5909
   -57.5793 -57.5682 -57.5651 -57.5611 -57.5579 -57.5570 -57.5558 -57.5546
   -57.5538 -57.5514 -57.5468 -57.5454 -57.5453 -57.5431 -57.5429 -57.5405
   -24.0578 -23.5555 -21.6888 -21.1601 -16.6649 -14.4812 -12.7507 -11.9171
    -9.8597  -9.4971  -8.6097  -8.4729  -8.2144  -8.0258  -7.9497  -7.9467
    -7.9441  -7.9433  -7.9427  -7.9093  -7.6831  -7.3845  -7.3610  -7.3585
    -7.3574  -7.3211  -7.3178  -7.3131  -6.9094  -6.8970  -6.8936  -6.8922
[...]
     celldm(4)=   0.000000  celldm(5)=   0.000000  celldm(6)=   0.000000

     crystal axes: (cart. coord. in units of alat)
               a(1) = (  11.534892   0.000000   0.000000 )
               a(2) = (  -5.767446   9.989509   0.000000 )
               a(3) = (   0.000000   0.000000  30.178057 )

     reciprocal axes: (cart. coord. in units 2 pi/alat)
               b(1) = (  0.086693  0.050053  0.000000 )
               b(2) = (  0.000000  0.100105  0.000000 )
               b(3) = (  0.000000  0.000000  0.033137 )

     PseudoPot. # 1 for Au read from file:
     /gpfs/pace1/project/chbe-medford/medford-share/data/pseudos/SSSP_eff_PBE/Au.UPF
     MD5 check sum: 1009843a674e36925f098327e430af60
     Pseudo is Norm-conserving, Zval = 19.0
     Generated using ONCVPSP code by D. R. Hamann
     Using radial grid of  602 points,  8 beta functions with:
                l(1) =   0
                l(2) =   0
                l(3) =   1
                l(4) =   1
                l(5) =   2
                l(6) =   2
                l(7) =   3
                l(8) =   3

     PseudoPot. # 2 for O  read from file:
     /gpfs/pace1/project/chbe-medford/medford-share/data/pseudos/SSSP_eff_PBE/O.UPF
     MD5 check sum: 734c27235a0248c51dbae37a1fbe46ec
     Pseudo is Ultrasoft + core correction, Zval =  6.0
     Generated by new atomic code, or converted to UPF format
     Using radial grid of  737 points,  5 beta functions with:
                l(1) =   0
                l(2) =   0
                l(3) =   1
                l(4) =   1
                l(5) =   2
     Q(r) pseudized with  8 coefficients,  rinner =    0.900   0.900   0.900
                                                       0.900   0.900

     PseudoPot. # 3 for C  read from file:
     /gpfs/pace1/project/chbe-medford/medford-share/data/pseudos/SSSP_eff_PBE/C.UPF
     MD5 check sum: d1aef80898a10debaa0f26306b886e00
     Pseudo is Ultrasoft + core correction, Zval =  4.0
     Generated by new atomic code, or converted to UPF format
     Using radial grid of  721 points,  4 beta functions with:
                l(1) =   0
                l(2) =   0
                l(3) =   1
                l(4) =   1
     Q(r) pseudized with  8 coefficients,  rinner =    1.100   1.100   1.100

     PseudoPot. # 4 for  H read from file:
     /gpfs/pace1/project/chbe-medford/medford-share/data/pseudos/SSSP_eff_PBE/H.UPF
     MD5 check sum: 36633979392af7100e6f6632747262d3
     Pseudo is Ultrasoft, Zval =  1.0
     Generated using "atomic" code by A. Dal Corso  v.5.0.99 svn rev. 10869
     Using radial grid of  929 points,  2 beta functions with:
                l(1) =   0
                l(2) =   0
     Q(r) pseudized with 0 coefficients

     atomic species   valence    mass     pseudopotential
        Au1           19.00   196.96650     Au( 1.00)
        O1             6.00    15.99940     O ( 1.00)
        C1             4.00    12.01100     C ( 1.00)
        H1             1.00     1.00794      H( 1.00)

     No symmetry found

   Cartesian axes

     site n.     atom                  positions (alat units)
         1           Au1 tau(   1) = (   0.0000000   0.0000000  10.0000000  )
         2           Au1 tau(   2) = (   1.4418614   0.8324591  12.3545499  )
         3           Au1 tau(   3) = (  -1.4418614   2.4973773  10.0000000  )
         4           Au1 tau(   4) = (   0.0000000   3.3298364  12.3545499  )
         5           Au1 tau(   5) = (  -2.8837229   4.9947545  10.0000000  )
         6           Au1 tau(   6) = (  -1.4418614   5.8272136  12.3545499  )
         7           Au1 tau(   7) = (  -4.3255843   7.4921318  10.0000000  )
         8           Au1 tau(   8) = (  -2.8837229   8.3245909  12.3545499  )
         9           Au1 tau(   9) = (   2.8837229   0.0000000  10.0000000  )
        10           Au1 tau(  10) = (   4.3255843   0.8324591  12.3545499  )
        11           Au1 tau(  11) = (   1.4418614   2.4973773  10.0000000  )
        12           Au1 tau(  12) = (   2.8837229   3.3298364  12.3545499  )
        13           Au1 tau(  13) = (   0.0000000   4.9947545  10.0000000  )
        14           Au1 tau(  14) = (   1.4418614   5.8272136  12.3545499  )
        15           Au1 tau(  15) = (  -1.4418614   7.4921318  10.0000000  )
        16           Au1 tau(  16) = (   0.0000000   8.3245909  12.3545499  )
        17           Au1 tau(  17) = (   5.7674458   0.0000000  10.0000000  )
        18           Au1 tau(  18) = (   7.2093072   0.8324591  12.3545499  )
        19           Au1 tau(  19) = (   4.3255843   2.4973773  10.0000000  )
        20           Au1 tau(  20) = (   5.7674458   3.3298364  12.3545499  )
        21           Au1 tau(  21) = (   2.8837229   4.9947545  10.0000000  )
        22           Au1 tau(  22) = (   4.3255843   5.8272136  12.3545499  )
        23           Au1 tau(  23) = (   1.4418614   7.4921318  10.0000000  )
        24           Au1 tau(  24) = (   2.8837229   8.3245909  12.3545499  )
        25           Au1 tau(  25) = (   8.6511686   0.0000000  10.0000000  )
        26           Au1 tau(  26) = (  10.0930301   0.8324591  12.3545499  )
        27           Au1 tau(  27) = (   7.2093072   2.4973773  10.0000000  )
        28           Au1 tau(  28) = (   8.6511686   3.3298364  12.3545499  )
        29           Au1 tau(  29) = (   5.7674458   4.9947545  10.0000000  )
        30           Au1 tau(  30) = (   7.2093072   5.8272136  12.3545499  )
        31           Au1 tau(  31) = (   4.3255843   7.4921318  10.0000000  )
        32           Au1 tau(  32) = (   5.7674458   8.3245909  12.3545499  )
        33           O1  tau(  33) = (   1.4420000   5.8270000  14.8545499  )
        34           O1  tau(  34) = (   3.4550351   7.1065000  18.4298289  )
        35           O1  tau(  35) = (   0.6212300   5.4741000  16.9467345  )
        36           O1  tau(  36) = (   3.5212155   5.6599000  20.1780568  )
        37           C1  tau(  37) = (   3.0106743   5.2101000  16.4933734  )
        38           C1  tau(  38) = (   3.1782348   4.8346000  17.9391968  )
        39           C1  tau(  39) = (   1.5624576   5.5007000  16.1679885  )
        40           C1  tau(  40) = (   3.4000857   5.8716000  18.9810537  )
        41           C1  tau(  41) = (   3.1061491   3.5618000  18.3579407  )
        42           H1  tau(  42) = (   3.6242465   6.0783000  16.2323117  )
        43           H1  tau(  43) = (   3.3347627   4.3790000  15.8543111  )
        44           H1  tau(  44) = (   2.9320862   2.7552000  17.6524549  )
        45           H1  tau(  45) = (   3.2145197   3.2796000  19.3998440  )
        46           H1  tau(  46) = (   0.5135546   6.0307000  14.6124353  )
        47           H1  tau(  47) = (   3.6019563   7.8037000  19.1041040  )

     number of k points=    10  Fermi-Dirac smearing, width (Ry)=  0.0073
                       cart. coord. in units 2pi/alat
        k(    1) = (   0.0000000   0.0000000   0.0000000), wk =   0.1250000
        k(    2) = (   0.0000000   0.0250263   0.0000000), wk =   0.2500000
        k(    3) = (   0.0000000  -0.0500525   0.0000000), wk =   0.1250000
        k(    4) = (   0.0216734   0.0375394   0.0000000), wk =   0.2500000
        k(    5) = (  -0.0216734   0.0125131   0.0000000), wk =   0.2500000
        k(    6) = (   0.0216734   0.0125131   0.0000000), wk =   0.2500000
        k(    7) = (   0.0433467  -0.0250263   0.0000000), wk =   0.1250000
        k(    8) = (  -0.0433467  -0.0250263   0.0000000), wk =   0.1250000
        k(    9) = (  -0.0216734   0.0375394   0.0000000), wk =   0.2500000
        k(   10) = (   0.0433467   0.0000000   0.0000000), wk =   0.2500000

     Largest allocated arrays     est. size (Mb)     dimensions
     Largest temporary arrays     est. size (Mb)     dimensions

     Initial potential from superposition of free atoms
     Check: negative starting charge=   -0.002318

     starting charge  657.28107, renormalised to  658.00000

     negative rho (up, down):  2.320E-03 0.000E+00
     Starting wfc are   42 randomized atomic wfcs +  297 random wfc

[...]

     Threshold (ethr) on eigenvalues was too large:
     Diagonalizing with lowered threshold

     Davidson diagonalization with overlap
     ethr =  3.38E-04,  avg # of iterations =  1.7

[...]

     Writing output data file calc.save
     Check: negative starting charge=   -0.002281
     NEW-OLD atomic charge density approx. for the potential
     Check: negative starting charge=   -0.002282

[...]

     Self-consistent Calculation

[...]

     total energy              =   -8984.23208977 Ry
     Harris-Foulkes estimate   =   -8984.23208791 Ry
     estimated scf accuracy    <       0.00000088 Ry

     iteration #  9     ecut=    40.42 Ry     beta=0.07
     Davidson diagonalization with overlap
     ethr =  1.34E-10,  avg # of iterations =  4.0

     negative rho (up, down):  3.889E-03 0.000E+00

     End of self-consistent calculation

[...]

          k =-0.0217 0.0375 0.0000 (101920 PWs)   bands (ev):

[...]

          k = 0.0433 0.0000 0.0000 (101920 PWs)   bands (ev):

  -106.3177-106.3142-106.3136-106.3096-106.3084-106.3075-106.3065-106.3061
  -106.3049-106.3046-106.3042-106.3038-106.3033-106.3028-106.3026-106.3022
  -106.3015-106.3011-106.3009-106.3005-106.3000-106.2999-106.2996-106.2992
  -106.2991-106.2987-106.2986-106.2983-106.2978-106.2976-106.2973-106.2942
   -57.7391 -57.7318 -57.7313 -57.7284 -57.7278 -57.7237 -57.7183 -57.7173
   -57.7163 -57.7160 -57.7136 -57.7133 -57.7091 -57.7083 -57.7060 -57.7051
   -57.7044 -57.6962 -57.6947 -57.6940 -57.6853 -57.6839 -57.6817 -57.6668
   -57.6663 -57.6641 -57.6588 -57.6587 -57.6539 -57.6537 -57.6386 -57.6314
   -57.6312 -57.6292 -57.6284 -57.6233 -57.6229 -57.6201 -57.6177 -57.6174
   -57.6158 -57.6153 -57.6136 -57.6080 -57.6076 -57.6071 -57.6063 -57.6055
   -57.6053 -57.6017 -57.5980 -57.5978 -57.5949 -57.5923 -57.5919 -57.5887
   -57.5879 -57.5871 -57.5868 -57.5860 -57.5803 -57.5692 -57.5690 -57.5644
   -57.5630 -57.5607 -57.5594 -57.5447 -57.5441 -57.5347 -57.5329 -57.5310
   -57.5246 -57.5239 -57.5223 -57.5210 -57.5123 -57.5089 -57.5078 -57.4990
   -57.4901 -57.4843 -57.4836 -57.4812 -57.4782 -57.4768 -57.4747 -57.4744
   -57.4728 -57.4717 -57.4707 -57.4680 -57.4675 -57.4659 -57.4651 -57.4629
   -23.7304 -23.5339 -21.4475 -21.2189 -16.5509 -14.2805 -12.5168 -11.2794
    -9.6222  -9.0378  -8.5976  -8.5948  -8.3195  -8.1788  -7.9389  -7.6003
    -7.5835  -7.5506  -7.5479  -7.2817  -7.2791  -7.2595  -7.2043  -7.2036
    -7.1864  -7.1860  -7.0762  -6.9996  -6.9992  -6.9844  -6.9843  -6.9309
    -6.8879  -6.8210  -6.8208  -6.7894  -6.6609  -6.6601  -6.6315  -6.6310
    -6.5265  -6.5263  -6.5072  -6.4796  -6.4793  -6.4122  -6.4119  -6.3568
    -6.3531  -6.3504  -6.3378  -6.3374  -6.2980  -6.2975  -6.2914  -6.1485
    -6.0602  -6.0573  -6.0410  -6.0308  -5.9274  -5.9265  -5.7171  -5.6422
    -5.6400  -5.5942  -5.5607  -5.5596  -5.4454  -5.4440  -5.4180  -5.4167
    -5.4148  -5.4076  -5.3831  -5.3317  -5.3300  -5.3150  -5.3133  -5.3028
    -5.3006  -5.3003  -5.2703  -5.2694  -5.2344  -5.2297  -5.2082  -5.2076
    -5.1619  -5.0783  -5.0685  -5.0678  -5.0188  -4.9452  -4.9348  -4.9274
    -4.9267  -4.8626  -4.8437  -4.8163  -4.8069  -4.8063  -4.7629  -4.6771
    -4.6765  -4.6416  -4.6413  -4.6193  -4.6192  -4.5949  -4.5948  -4.5585
    -4.5319  -4.5315  -4.4523  -4.4518  -4.4434  -4.4432  -4.4103  -4.4092
    -4.2828  -4.2818  -4.1652  -4.1524  -4.1505  -4.1436  -4.1424  -4.0474
    -4.0438  -4.0228  -4.0208  -3.9628  -3.9468  -3.9404  -3.8879  -3.8266
    -3.7564  -3.7507  -3.7397  -3.7293  -3.6856  -3.6805  -3.6778  -3.6331
    -3.6319  -3.6305  -3.6242  -3.6094  -3.5525  -3.5514  -3.5494  -3.5402
    -3.5192  -3.5183  -3.4583  -3.3480  -3.3407  -3.3242  -3.3236  -3.3109
    -3.3102  -3.2791  -3.2789  -3.2505  -3.2353  -3.2346  -3.2042  -3.2033
    -3.1281  -3.1274  -3.1111  -3.1107  -3.0831  -3.0436  -3.0414  -3.0394
    -3.0387  -2.9666  -2.9658  -2.9255  -2.9199  -2.9183  -2.9051  -2.8768
    -2.8307  -2.8294  -2.7926  -2.7561  -2.7554  -2.7342  -2.7333  -2.5796
    -2.5404  -2.4575  -2.4175  -2.3915  -1.8226  -1.8223  -1.7315  -1.7308
    -1.6041  -1.5928  -0.8952  -0.7705  -0.7651   0.1643   0.1681   0.2955
     0.3005   0.3739   0.7026

     the Fermi energy is    -1.2626 ev

!    total energy              =   -8984.23210238 Ry
     Harris-Foulkes estimate   =   -8984.23208987 Ry
     estimated scf accuracy    <       0.00000030 Ry

     The total energy is the sum of the following terms:

     one-electron contribution =  -82595.00359134 Ry
     hartree contribution      =   41123.52887510 Ry
     xc contribution           =    -861.95762114 Ry
     ewald contribution        =   33349.21406066 Ry
     smearing contrib. (-TS)   =      -0.01382566 Ry

     convergence has been achieved in   9 iterations

     Forces acting on atoms (Ry/au):

     negative rho (up, down):  3.889E-03 0.000E+00
     atom    1 type  1   force =    -0.00001398   -0.00001290   -0.02386876
     atom    2 type  1   force =    -0.00000993    0.00000486    0.02399314
     atom    3 type  1   force =     0.00000925    0.00006443   -0.02394160
     atom    4 type  1   force =    -0.00007308   -0.00023597    0.02378039
     atom    5 type  1   force =     0.00009552   -0.00003396   -0.02410027
     atom    6 type  1   force =    -0.00034655    0.00011313    0.02379380
     atom    7 type  1   force =    -0.00001718    0.00001848   -0.02393481
     atom    8 type  1   force =     0.00004746   -0.00003277    0.02411153
     atom    9 type  1   force =    -0.00001270   -0.00001562   -0.02397367
     atom   10 type  1   force =     0.00002551    0.00004751    0.02400500
     atom   11 type  1   force =     0.00000691   -0.00002055   -0.02403709
     atom   12 type  1   force =     0.00006797   -0.00014855    0.02396234
     atom   13 type  1   force =    -0.00008064   -0.00000048   -0.02361496
     atom   14 type  1   force =     0.00020278   -0.00032108    0.02352842
     atom   15 type  1   force =    -0.00000279   -0.00002217   -0.02423815
     atom   16 type  1   force =    -0.00045466    0.00049467    0.02340899
     atom   17 type  1   force =     0.00010836   -0.00004857   -0.02410727
     atom   18 type  1   force =     0.00000512   -0.00005173    0.02389431
     atom   19 type  1   force =    -0.00004185    0.00008270   -0.02415636
     atom   20 type  1   force =    -0.00000524   -0.00000168    0.02398174
     atom   21 type  1   force =     0.00004649    0.00001789   -0.02347924
     atom   22 type  1   force =     0.00023939    0.00004100    0.02369047
     atom   23 type  1   force =     0.00000526    0.00005553   -0.02346072
     atom   24 type  1   force =     0.00031937    0.00032985    0.02352630
     atom   25 type  1   force =    -0.00007648   -0.00001558   -0.02384648
     atom   26 type  1   force =    -0.00001891    0.00000623    0.02383114
     atom   27 type  1   force =     0.00002050   -0.00000957   -0.02373986
     atom   28 type  1   force =     0.00000945   -0.00000155    0.02393508
     atom   29 type  1   force =    -0.00006440   -0.00000786   -0.02407256
     atom   30 type  1   force =    -0.00003175   -0.00003473    0.02393310
     atom   31 type  1   force =     0.00001589   -0.00001422   -0.02377026
     atom   32 type  1   force =    -0.00003457   -0.00001669    0.02393758
     atom   33 type  2   force =    -0.00103570   -0.00031717   -0.00109659
     atom   34 type  2   force =     0.00023224   -0.00055455    0.00066637
     atom   35 type  2   force =     0.00014731   -0.00004307    0.00063692
     atom   36 type  2   force =    -0.00014410    0.00091285   -0.00081000
     atom   37 type  3   force =     0.00041678   -0.00011091   -0.00038796
     atom   38 type  3   force =     0.00029760    0.00012589   -0.00027702
     atom   39 type  3   force =     0.00096243   -0.00042231    0.00070230
     atom   40 type  3   force =    -0.00003971    0.00037552   -0.00015001
     atom   41 type  3   force =     0.00008383    0.00029400   -0.00017530
     atom   42 type  4   force =    -0.00031172   -0.00063216   -0.00012178
     atom   43 type  4   force =    -0.00033019    0.00071053    0.00100575
     atom   44 type  4   force =    -0.00027395    0.00019986   -0.00018973
     atom   45 type  4   force =    -0.00048497   -0.00017160   -0.00040530
     atom   46 type  4   force =     0.00135141    0.00002457    0.00105378
     atom   47 type  4   force =    -0.00081176   -0.00062152    0.00057730

     Total force =     0.135060     Total SCF correction =     0.001334
 !ASE

     Writing output data file calc.save

     General routines

     Parallel routines

   This run was terminated on:   8:10:59   7Apr2019

   JOB DONE.