     Program PWSCF v.5.1rc2 starts on  9Feb2019 at 22: 9:35

     Current dimensions of program PWSCF are:
     Max number of different atomic species (ntypx) = 10
     Max number of k-points (npk) =  40000
     Max angular momentum in pseudopotentials (lmaxx) =  3

     IMPORTANT: XC functional enforced from input :
     Exchange-correlation      = PBE ( 1  4  3  4 0)
     Any further DFT definition will be discarded
     Please, verify this is what you really want

     Subspace diagonalization in iterative solution of the eigenvalue problem:
     a serial algorithm will be used

     bravais-lattice index     =            0
     lattice parameter (alat)  =       1.8897  a.u.
     unit-cell volume          =   21473.7007 (a.u.)^3
     number of atoms/cell      =           48
     number of atomic types    =            4
     number of electrons       =       558.00
     number of Kohn-Sham states=          289
     kinetic-energy cutoff     =      40.4243  Ry
     charge density cutoff     =     330.7439  Ry
     convergence threshold     =      7.3E-07
     mixing beta               =       0.2000
     number of iterations used =            8  local-TF  mixing
     Exchange-correlation      = PBE ( 1  4  3  4 0)
     nstep                     =           50

     celldm(1)=   1.889726  celldm(2)=   0.000000  celldm(3)=   0.000000
     celldm(4)=   0.000000  celldm(5)=   0.000000  celldm(6)=   0.000000

     crystal axes: (cart. coord. in units of alat)
               a(1) = (  11.099314   0.000000   0.000000 )
               a(2) = (  -5.549657   9.612288   0.000000 )
               a(3) = (   0.000000   0.000000  29.825478 )

     reciprocal axes: (cart. coord. in units 2 pi/alat)
               b(1) = (  0.090096  0.052017  0.000000 )
               b(2) = (  0.000000  0.104034  0.000000 )
               b(3) = (  0.000000  0.000000  0.033528 )

     PseudoPot. # 1 for Pt read from file:
     /gpfs/pace1/project/chbe-medford/medford-share/data/pseudos/SSSP_eff_PBE/Pt.UPF
     MD5 check sum: f09d6de1a584b5a045c4fc126da2d0c4
     Pseudo is Ultrasoft + core correction, Zval = 16.0
     Generated by new atomic code, or converted to UPF format
     Using radial grid of  985 points,  6 beta functions with:
                l(1) =   0
                l(2) =   0
                l(3) =   1
                l(4) =   1
                l(5) =   2
                l(6) =   2
     Q(r) pseudized with  8 coefficients,  rinner =    1.300   1.300   1.300
                                                       1.300   1.300

     PseudoPot. # 2 for O  read from file:
     /gpfs/pace1/project/chbe-medford/medford-share/data/pseudos/SSSP_eff_PBE/O.UPF
     MD5 check sum: 734c27235a0248c51dbae37a1fbe46ec
     Pseudo is Ultrasoft + core correction, Zval =  6.0
     Generated by new atomic code, or converted to UPF format
     Using radial grid of  737 points,  5 beta functions with:
                l(1) =   0
                l(2) =   0
                l(3) =   1
                l(4) =   1
                l(5) =   2
     Q(r) pseudized with  8 coefficients,  rinner =    0.900   0.900   0.900
                                                       0.900   0.900

     PseudoPot. # 3 for C  read from file:
     /gpfs/pace1/project/chbe-medford/medford-share/data/pseudos/SSSP_eff_PBE/C.UPF
     MD5 check sum: d1aef80898a10debaa0f26306b886e00
     Pseudo is Ultrasoft + core correction, Zval =  4.0
     Generated by new atomic code, or converted to UPF format
     Using radial grid of  721 points,  4 beta functions with:
                l(1) =   0
                l(2) =   0
                l(3) =   1
                l(4) =   1
     Q(r) pseudized with  8 coefficients,  rinner =    1.100   1.100   1.100

     PseudoPot. # 4 for  H read from file:
     /gpfs/pace1/project/chbe-medford/medford-share/data/pseudos/SSSP_eff_PBE/H.UPF
     MD5 check sum: 36633979392af7100e6f6632747262d3
     Pseudo is Ultrasoft, Zval =  1.0
     Generated using "atomic" code by A. Dal Corso  v.5.0.99 svn rev. 10869
     Using radial grid of  929 points,  2 beta functions with:
                l(1) =   0
                l(2) =   0
     Q(r) pseudized with 0 coefficients

     atomic species   valence    mass     pseudopotential
        Pt1           16.00   195.08000     Pt( 1.00)
        O1             6.00    15.99940     O ( 1.00)
        C1             4.00    12.01100     C ( 1.00)
        H1             1.00     1.00794      H( 1.00)

     No symmetry found

   Cartesian axes

     site n.     atom                  positions (alat units)
         1           Pt1 tau(   1) = (   0.0000000   0.0000000  10.0000000  )
         2           Pt1 tau(   2) = (   1.3874142   0.8010240  12.2656379  )
         3           Pt1 tau(   3) = (  -1.3874142   2.4030719  10.0000000  )
         4           Pt1 tau(   4) = (   0.0000000   3.2040959  12.2656379  )
         5           Pt1 tau(   5) = (  -2.7748284   4.8061438  10.0000000  )
         6           Pt1 tau(   6) = (  -1.3874142   5.6071678  12.2656379  )
         7           Pt1 tau(   7) = (  -4.1622426   7.2092157  10.0000000  )
         8           Pt1 tau(   8) = (  -2.7748284   8.0102397  12.2656379  )
         9           Pt1 tau(   9) = (   2.7748284   0.0000000  10.0000000  )
        10           Pt1 tau(  10) = (   4.1622426   0.8010240  12.2656379  )
        11           Pt1 tau(  11) = (   1.3874142   2.4030719  10.0000000  )
        12           Pt1 tau(  12) = (   2.7748284   3.2040959  12.2656379  )
        13           Pt1 tau(  13) = (   0.0000000   4.8061438  10.0000000  )
        14           Pt1 tau(  14) = (   1.3874142   5.6071678  12.2656379  )
        15           Pt1 tau(  15) = (  -1.3874142   7.2092157  10.0000000  )
        16           Pt1 tau(  16) = (   0.0000000   8.0102397  12.2656379  )
        17           Pt1 tau(  17) = (   5.5496569   0.0000000  10.0000000  )
        18           Pt1 tau(  18) = (   6.9370711   0.8010240  12.2656379  )
        19           Pt1 tau(  19) = (   4.1622426   2.4030719  10.0000000  )
        20           Pt1 tau(  20) = (   5.5496569   3.2040959  12.2656379  )
        21           Pt1 tau(  21) = (   2.7748284   4.8061438  10.0000000  )
        22           Pt1 tau(  22) = (   4.1622426   5.6071678  12.2656379  )
        23           Pt1 tau(  23) = (   1.3874142   7.2092157  10.0000000  )
        24           Pt1 tau(  24) = (   2.7748284   8.0102397  12.2656379  )
        25           Pt1 tau(  25) = (   8.3244853   0.0000000  10.0000000  )
        26           Pt1 tau(  26) = (   9.7118995   0.8010240  12.2656379  )
        27           Pt1 tau(  27) = (   6.9370711   2.4030719  10.0000000  )
        28           Pt1 tau(  28) = (   8.3244853   3.2040959  12.2656379  )
        29           Pt1 tau(  29) = (   5.5496569   4.8061438  10.0000000  )
        30           Pt1 tau(  30) = (   6.9370711   5.6071678  12.2656379  )
        31           Pt1 tau(  31) = (   4.1622426   7.2092157  10.0000000  )
        32           Pt1 tau(  32) = (   5.5496569   8.0102397  12.2656379  )
        33           O1  tau(  33) = (   5.6012000   7.7798056  16.9173101  )
        34           O1  tau(  34) = (   5.5500000   3.2040000  14.7656379  )
        35           O1  tau(  35) = (   5.6009000   2.7588933  16.9921854  )
        36           C1  tau(  36) = (   5.5872000   5.4913101  17.6961005  )
        37           C1  tau(  37) = (   5.5823000   5.0702607  16.2301796  )
        38           C1  tau(  38) = (   5.5826000   6.9996773  17.8681320  )
        39           C1  tau(  39) = (   5.5491000   7.5053549  19.2870728  )
        40           C1  tau(  40) = (   5.5796000   3.5674018  16.0746075  )
        41           H1  tau(  41) = (   6.4775000   5.0956822  18.1981482  )
        42           H1  tau(  42) = (   4.7027000   5.0892707  18.2034532  )
        43           H1  tau(  43) = (   6.4711000   5.4650101  15.7248535  )
        44           H1  tau(  44) = (   4.6911000   5.4679197  15.7316140  )
        45           H1  tau(  45) = (   4.6364000   7.1586467  19.7779890  )
        46           H1  tau(  46) = (   6.4285000   7.1436997  19.8254778  )
        47           H1  tau(  47) = (   5.5586000   8.5988201  19.2895353  )
        48           H1  tau(  48) = (   5.5481000   2.2291262  14.6571689  )

     number of k points=     4  Fermi-Dirac smearing, width (Ry)=  0.0073
                       cart. coord. in units 2pi/alat
        k(    1) = (   0.0000000   0.0000000   0.0000000), wk =   0.5000000
        k(    2) = (   0.0000000  -0.0520168   0.0000000), wk =   0.5000000
        k(    3) = (   0.0450478  -0.0260084   0.0000000), wk =   0.5000000
        k(    4) = (  -0.0450478  -0.0260084   0.0000000), wk =   0.5000000

     Largest allocated arrays     est. size (Mb)     dimensions
     Largest temporary arrays     est. size (Mb)     dimensions

     Initial potential from superposition of free atoms
     Check: negative starting charge=   -5.909509

     starting charge  541.99935, renormalised to  558.00000

     negative rho (up, down):  6.084E+00 0.000E+00
     Starting wfc are  424 randomized atomic wfcs

     Self-consistent Calculation

     iteration #  1     ecut=    40.42 Ry     beta=0.20
     Davidson diagonalization with overlap
     ethr =  1.00E-02,  avg # of iterations =  2.0

     negative rho (up, down):  5.983E+00 0.000E+00

     total energy              =   -6910.55768562 Ry
     Harris-Foulkes estimate   =   -6915.40785649 Ry
     estimated scf accuracy    <      72.21542971 Ry

[...]

     iteration # 16     ecut=    40.42 Ry     beta=0.20
     Davidson diagonalization with overlap
     c_bands:  3 eigenvalues not converged
     ethr =  4.90E-06,  avg # of iterations = 11.0

[...]

     End of self-consistent calculation

          k = 0.0000 0.0000 0.0000 ( 93175 PWs)   bands (ev):

   -53.4812 -53.4789 -53.4737 -53.4479 -53.4456 -53.4416 -53.4147 -53.4126
   -53.4021 -53.4002 -53.3983 -53.3981 -53.3929 -53.3914 -53.3880 -53.3870
   -53.3854 -53.3851 -53.3136 -53.3123 -53.2991 -53.2959 -53.2952 -53.2899
   -53.2826 -53.2825 -53.2747 -53.2724 -53.2721 -53.2706 -53.2697 -53.2688
   -53.2675 -53.2646 -53.2638 -53.2612 -53.2405 -53.2391 -53.2350 -53.2348
   -53.2295 -53.2287 -53.2153 -53.2147 -53.2083 -53.1773 -53.1699 -53.1692
   -53.1642 -53.1622 -53.1617 -53.1614 -53.1606 -53.1594 -53.1525 -53.1236
   -53.1230 -53.1183 -53.1172 -53.1162 -53.1156 -53.1135 -53.1132 -53.0989
   -53.0804 -53.0803 -53.0482 -53.0457 -53.0453 -53.0434 -53.0423 -53.0135
   -52.9781 -52.9777 -52.9745 -52.9745 -52.9735 -52.9733 -52.9724 -52.9653
   -52.9348 -52.9022 -52.9009 -52.8993 -52.8988 -52.8985 -52.8979 -52.8968
   -52.8889 -52.8826 -52.8779 -52.8738 -52.8733 -52.8714 -52.8709 -52.8692
   -23.8081 -21.6512 -21.4489 -15.8980 -14.4886 -13.0657 -11.1147  -9.2875
    -8.8188  -8.1898  -8.1423  -7.9832  -7.6334  -7.5199  -7.5197  -7.5170
    -7.5162  -7.5156  -7.4911  -7.0797  -6.8474  -6.8473  -6.8456  -6.8137
    -6.7682  -6.7647  -6.7441  -6.5099  -6.2470  -6.2375  -6.2330  -6.2320
    -6.2317  -6.2285  -6.1562  -6.0032  -5.9898  -5.9836  -5.9701  -5.9684
[...]
     number of iterations used =            8  local-TF  mixing
     Exchange-correlation      = PBE ( 1  4  3  4 0)
     nstep                     =           50

     celldm(1)=   1.889726  celldm(2)=   0.000000  celldm(3)=   0.000000
     celldm(4)=   0.000000  celldm(5)=   0.000000  celldm(6)=   0.000000

     crystal axes: (cart. coord. in units of alat)
               a(1) = (  11.099314   0.000000   0.000000 )
               a(2) = (  -5.549657   9.612288   0.000000 )
               a(3) = (   0.000000   0.000000  29.825478 )

     reciprocal axes: (cart. coord. in units 2 pi/alat)
               b(1) = (  0.090096  0.052017  0.000000 )
               b(2) = (  0.000000  0.104034  0.000000 )
               b(3) = (  0.000000  0.000000  0.033528 )

     PseudoPot. # 1 for Pt read from file:
     /gpfs/pace1/project/chbe-medford/medford-share/data/pseudos/SSSP_eff_PBE/Pt.UPF
     MD5 check sum: f09d6de1a584b5a045c4fc126da2d0c4
     Pseudo is Ultrasoft + core correction, Zval = 16.0
     Generated by new atomic code, or converted to UPF format
     Using radial grid of  985 points,  6 beta functions with:
                l(1) =   0
                l(2) =   0
                l(3) =   1
                l(4) =   1
                l(5) =   2
                l(6) =   2
     Q(r) pseudized with  8 coefficients,  rinner =    1.300   1.300   1.300
                                                       1.300   1.300

     PseudoPot. # 2 for O  read from file:
     /gpfs/pace1/project/chbe-medford/medford-share/data/pseudos/SSSP_eff_PBE/O.UPF
     MD5 check sum: 734c27235a0248c51dbae37a1fbe46ec
     Pseudo is Ultrasoft + core correction, Zval =  6.0
     Generated by new atomic code, or converted to UPF format
     Using radial grid of  737 points,  5 beta functions with:
                l(1) =   0
                l(2) =   0
                l(3) =   1
                l(4) =   1
                l(5) =   2
     Q(r) pseudized with  8 coefficients,  rinner =    0.900   0.900   0.900
                                                       0.900   0.900

     PseudoPot. # 3 for C  read from file:
     /gpfs/pace1/project/chbe-medford/medford-share/data/pseudos/SSSP_eff_PBE/C.UPF
     MD5 check sum: d1aef80898a10debaa0f26306b886e00
     Pseudo is Ultrasoft + core correction, Zval =  4.0
     Generated by new atomic code, or converted to UPF format
     Using radial grid of  721 points,  4 beta functions with:
                l(1) =   0
                l(2) =   0
                l(3) =   1
                l(4) =   1
     Q(r) pseudized with  8 coefficients,  rinner =    1.100   1.100   1.100

     PseudoPot. # 4 for  H read from file:
     /gpfs/pace1/project/chbe-medford/medford-share/data/pseudos/SSSP_eff_PBE/H.UPF
     MD5 check sum: 36633979392af7100e6f6632747262d3
     Pseudo is Ultrasoft, Zval =  1.0
     Generated using "atomic" code by A. Dal Corso  v.5.0.99 svn rev. 10869
     Using radial grid of  929 points,  2 beta functions with:
                l(1) =   0
                l(2) =   0
     Q(r) pseudized with 0 coefficients

     atomic species   valence    mass     pseudopotential
        Pt1           16.00   195.08000     Pt( 1.00)
        O1             6.00    15.99940     O ( 1.00)
        C1             4.00    12.01100     C ( 1.00)
        H1             1.00     1.00794      H( 1.00)

     No symmetry found

   Cartesian axes

     site n.     atom                  positions (alat units)
         1           Pt1 tau(   1) = (   0.0000000   0.0000000  10.0000000  )
         2           Pt1 tau(   2) = (   1.3874142   0.8010240  12.2656379  )
         3           Pt1 tau(   3) = (  -1.3874142   2.4030719  10.0000000  )
         4           Pt1 tau(   4) = (   0.0000000   3.2040959  12.2656379  )
         5           Pt1 tau(   5) = (  -2.7748284   4.8061438  10.0000000  )
         6           Pt1 tau(   6) = (  -1.3874142   5.6071678  12.2656379  )
         7           Pt1 tau(   7) = (  -4.1622426   7.2092157  10.0000000  )
         8           Pt1 tau(   8) = (  -2.7748284   8.0102397  12.2656379  )
         9           Pt1 tau(   9) = (   2.7748284   0.0000000  10.0000000  )
        10           Pt1 tau(  10) = (   4.1622426   0.8010240  12.2656379  )
        11           Pt1 tau(  11) = (   1.3874142   2.4030719  10.0000000  )
        12           Pt1 tau(  12) = (   2.7748284   3.2040959  12.2656379  )
        13           Pt1 tau(  13) = (   0.0000000   4.8061438  10.0000000  )
        14           Pt1 tau(  14) = (   1.3874142   5.6071678  12.2656379  )
        15           Pt1 tau(  15) = (  -1.3874142   7.2092157  10.0000000  )
        16           Pt1 tau(  16) = (   0.0000000   8.0102397  12.2656379  )
        17           Pt1 tau(  17) = (   5.5496569   0.0000000  10.0000000  )
        18           Pt1 tau(  18) = (   6.9370711   0.8010240  12.2656379  )
        19           Pt1 tau(  19) = (   4.1622426   2.4030719  10.0000000  )
        20           Pt1 tau(  20) = (   5.5496569   3.2040959  12.2656379  )
        21           Pt1 tau(  21) = (   2.7748284   4.8061438  10.0000000  )
        22           Pt1 tau(  22) = (   4.1622426   5.6071678  12.2656379  )
        23           Pt1 tau(  23) = (   1.3874142   7.2092157  10.0000000  )
        24           Pt1 tau(  24) = (   2.7748284   8.0102397  12.2656379  )
        25           Pt1 tau(  25) = (   8.3244853   0.0000000  10.0000000  )
        26           Pt1 tau(  26) = (   9.7118995   0.8010240  12.2656379  )
        27           Pt1 tau(  27) = (   6.9370711   2.4030719  10.0000000  )
        28           Pt1 tau(  28) = (   8.3244853   3.2040959  12.2656379  )
        29           Pt1 tau(  29) = (   5.5496569   4.8061438  10.0000000  )
        30           Pt1 tau(  30) = (   6.9370711   5.6071678  12.2656379  )
        31           Pt1 tau(  31) = (   4.1622426   7.2092157  10.0000000  )
        32           Pt1 tau(  32) = (   5.5496569   8.0102397  12.2656379  )
        33           O1  tau(  33) = (   5.6012000   7.7798056  16.9173101  )
        34           O1  tau(  34) = (   5.5500000   3.2040000  14.7656379  )
        35           O1  tau(  35) = (   5.6009000   2.7588933  16.9921854  )
        36           C1  tau(  36) = (   5.5872000   5.4913101  17.6961005  )
        37           C1  tau(  37) = (   5.5823000   5.0702607  16.2301796  )
        38           C1  tau(  38) = (   5.5826000   6.9996773  17.8681320  )
        39           C1  tau(  39) = (   5.5491000   7.5053549  19.2870728  )
        40           C1  tau(  40) = (   5.5796000   3.5674018  16.0746075  )
        41           H1  tau(  41) = (   6.4775000   5.0956822  18.1981482  )
        42           H1  tau(  42) = (   4.7027000   5.0892707  18.2034532  )
        43           H1  tau(  43) = (   6.4711000   5.4650101  15.7248535  )
        44           H1  tau(  44) = (   4.6911000   5.4679197  15.7316140  )
        45           H1  tau(  45) = (   4.6364000   7.1586467  19.7779890  )
        46           H1  tau(  46) = (   6.4285000   7.1436997  19.8254778  )
        47           H1  tau(  47) = (   5.5586000   8.5988201  19.2895353  )
        48           H1  tau(  48) = (   5.5481000   2.2291262  14.6571689  )

     number of k points=    10  Fermi-Dirac smearing, width (Ry)=  0.0073
                       cart. coord. in units 2pi/alat
        k(    1) = (   0.0000000   0.0000000   0.0000000), wk =   0.1250000
        k(    2) = (   0.0000000   0.0260084   0.0000000), wk =   0.2500000
        k(    3) = (   0.0000000  -0.0520168   0.0000000), wk =   0.1250000
        k(    4) = (   0.0225239   0.0390126   0.0000000), wk =   0.2500000
        k(    5) = (  -0.0225239   0.0130042   0.0000000), wk =   0.2500000
        k(    6) = (   0.0225239   0.0130042   0.0000000), wk =   0.2500000
        k(    7) = (   0.0450478  -0.0260084   0.0000000), wk =   0.1250000
        k(    8) = (  -0.0450478  -0.0260084   0.0000000), wk =   0.1250000
        k(    9) = (  -0.0225239   0.0390126   0.0000000), wk =   0.2500000
        k(   10) = (   0.0450478   0.0000000   0.0000000), wk =   0.2500000

     Largest allocated arrays     est. size (Mb)     dimensions
     Largest temporary arrays     est. size (Mb)     dimensions

     Initial potential from superposition of free atoms
     Check: negative starting charge=   -5.909509

     starting charge  541.99935, renormalised to  558.00000

     negative rho (up, down):  6.084E+00 0.000E+00
     Starting wfc are  424 randomized atomic wfcs

[...]

     Writing output data file calc.save
     Check: negative starting charge=   -5.909422
     NEW-OLD atomic charge density approx. for the potential
     Check: negative starting charge=   -5.909419

[...]

     Self-consistent Calculation

[...]

     iteration # 42     ecut=    40.42 Ry     beta=0.07
     Davidson diagonalization with overlap
     c_bands:  1 eigenvalues not converged
     ethr =  8.56E-11,  avg # of iterations =  8.3

[...]

     total energy              =   -6904.62187636 Ry
     Harris-Foulkes estimate   =   -6904.62187685 Ry
     estimated scf accuracy    <       0.00000518 Ry

     iteration # 45     ecut=    40.42 Ry     beta=0.07
     Davidson diagonalization with overlap
     ethr =  8.56E-11,  avg # of iterations =  8.0

     negative rho (up, down):  5.660E+00 0.000E+00

     End of self-consistent calculation

[...]

          k =-0.0225 0.0390 0.0000 ( 93177 PWs)   bands (ev):

[...]

          k = 0.0450 0.0000 0.0000 ( 93177 PWs)   bands (ev):

   -53.4978 -53.4817 -53.4813 -53.4757 -53.4755 -53.4656 -53.4541 -53.4524
   -53.4508 -53.4505 -53.4449 -53.4448 -53.4344 -53.4341 -53.4296 -53.4276
   -53.4264 -53.4072 -53.4058 -53.4057 -53.3828 -53.3818 -53.3813 -53.3462
   -53.3435 -53.3410 -53.3325 -53.3309 -53.3170 -53.3167 -53.2842 -53.2703
   -53.2698 -53.2646 -53.2641 -53.2523 -53.2508 -53.2454 -53.2417 -53.2414
   -53.2372 -53.2366 -53.2334 -53.2241 -53.2236 -53.2188 -53.2181 -53.2174
   -53.2172 -53.2095 -53.2007 -53.1993 -53.1937 -53.1887 -53.1879 -53.1813
   -53.1808 -53.1797 -53.1778 -53.1777 -53.1641 -53.1413 -53.1413 -53.1332
   -53.1291 -53.1262 -53.1237 -53.0931 -53.0882 -53.0710 -53.0644 -53.0623
   -53.0483 -53.0459 -53.0434 -53.0410 -53.0214 -53.0146 -53.0131 -52.9929
   -52.9764 -52.9638 -52.9603 -52.9576 -52.9503 -52.9455 -52.9449 -52.9443
   -52.9393 -52.9380 -52.9352 -52.9319 -52.9292 -52.9263 -52.9253 -52.9250
   -23.4248 -21.7324 -21.1510 -15.7447 -14.3544 -12.7934 -10.5288  -8.9242
    -8.7886  -8.4211  -8.4182  -7.9914  -7.8420  -7.5458  -7.2700  -7.2268
    -7.2243  -6.9104  -6.9095  -6.8279  -6.8211  -6.8208  -6.7861  -6.7837
    -6.7100  -6.6667  -6.5678  -6.5671  -6.5347  -6.5342  -6.4936  -6.4551
    -6.4018  -6.3230  -6.3228  -6.1205  -6.1203  -6.1128  -6.1121  -5.9477
    -5.9475  -5.8951  -5.8684  -5.8670  -5.8327  -5.8018  -5.8011  -5.6895
    -5.6883  -5.6836  -5.6819  -5.6715  -5.6357  -5.6338  -5.4746  -5.4280
    -5.3393  -5.3184  -5.2823  -5.1527  -5.1512  -4.9518  -4.8636  -4.8065
    -4.8029  -4.7940  -4.6269  -4.6258  -4.5986  -4.4800  -4.4776  -4.4209
    -4.4198  -4.4193  -4.3943  -4.3557  -4.3137  -4.3119  -4.2844  -4.2829
    -4.2798  -4.2782  -4.2767  -4.2759  -4.2470  -4.1710  -4.1528  -4.1492
    -4.1333  -4.1320  -3.9939  -3.9622  -3.9506  -3.9497  -3.8101  -3.8062
    -3.7614  -3.7232  -3.6730  -3.6447  -3.6291  -3.6274  -3.6075  -3.5837
    -3.4183  -3.4162  -3.4094  -3.4036  -3.3762  -3.3751  -3.3240  -3.3223
    -3.2769  -3.2763  -3.2289  -3.2274  -3.2187  -3.1456  -3.1415  -3.0730
    -3.0712  -3.0499  -3.0485  -2.9237  -2.9220  -2.9160  -2.9149  -2.8783
    -2.8732  -2.8711  -2.6740  -2.6716  -2.5944  -2.4938  -2.4792  -2.3756
    -2.3105  -2.3043  -2.3013  -2.2964  -2.2474  -2.2027  -2.1335  -2.0921
    -2.0751  -2.0744  -2.0246  -2.0187  -1.9508  -1.9444  -1.9037  -1.8955
    -1.8004  -1.7988  -1.7316  -1.7219  -1.5315  -1.5292  -1.5283  -1.5136
    -1.5131  -1.5123  -1.5016  -1.5002  -1.4778  -1.4276  -1.4270  -1.4248
    -1.3888  -1.3867  -1.3025  -1.3013  -1.2604  -1.2567  -1.2308  -1.2235
    -1.1956  -1.1613  -1.0311  -1.0299  -1.0258  -0.9974  -0.9957  -0.9607
    -0.9558  -0.8782  -0.8769  -0.8542  -0.8454  -0.8412  -0.8405  -0.7583
    -0.7570

     the Fermi energy is    -0.9169 ev

!    total energy              =   -6904.62187636 Ry
     Harris-Foulkes estimate   =   -6904.62187654 Ry
     estimated scf accuracy    <       0.00000035 Ry

     The total energy is the sum of the following terms:

     one-electron contribution =  -62280.91893080 Ry
     hartree contribution      =   31187.77001711 Ry
     xc contribution           =   -1863.67038324 Ry
     ewald contribution        =   26052.35004093 Ry
     smearing contrib. (-TS)   =      -0.15262035 Ry

     convergence has been achieved in  45 iterations

     Forces acting on atoms (Ry/au):

     negative rho (up, down):  5.660E+00 0.000E+00
     atom    1 type  1   force =     0.00000319   -0.00003420   -0.01960456
     atom    2 type  1   force =     0.00017567   -0.00003261    0.01957703
     atom    3 type  1   force =    -0.00015816   -0.00029386   -0.01989316
     atom    4 type  1   force =    -0.00000908    0.00007781    0.01980555
     atom    5 type  1   force =     0.00034166    0.00022387   -0.01974415
     atom    6 type  1   force =    -0.00007649   -0.00006321    0.01982022
     atom    7 type  1   force =    -0.00031996    0.00002060   -0.01980983
     atom    8 type  1   force =    -0.00000160    0.00008138    0.01978784
     atom    9 type  1   force =    -0.00024750    0.00024000   -0.02008095
     atom   10 type  1   force =    -0.00033132   -0.00118060    0.01944794
     atom   11 type  1   force =     0.00018054   -0.00027170   -0.01986335
     atom   12 type  1   force =    -0.00075409    0.00028205    0.01944127
     atom   13 type  1   force =    -0.00001247   -0.00008024   -0.01988846
     atom   14 type  1   force =     0.00007394   -0.00006937    0.01980240
     atom   15 type  1   force =    -0.00012412    0.00002472   -0.01982195
     atom   16 type  1   force =     0.00001240    0.00020669    0.02003096
     atom   17 type  1   force =     0.00000455   -0.00039778   -0.01986233
     atom   18 type  1   force =     0.00030673   -0.00114516    0.01955567
     atom   19 type  1   force =     0.00037898    0.00030020   -0.01963293
     atom   20 type  1   force =    -0.00000168    0.00015055    0.02078496
     atom   21 type  1   force =    -0.00034053    0.00020431   -0.01972011
     atom   22 type  1   force =    -0.00060695    0.00048044    0.01963097
     atom   23 type  1   force =     0.00013829    0.00004017   -0.01983072
     atom   24 type  1   force =    -0.00002081    0.00008186    0.01977676
     atom   25 type  1   force =     0.00023424    0.00025116   -0.02010638
     atom   26 type  1   force =    -0.00018110   -0.00001546    0.01957880
     atom   27 type  1   force =    -0.00041661    0.00030186   -0.01957917
     atom   28 type  1   force =     0.00074767    0.00027577    0.01951649
     atom   29 type  1   force =     0.00001319   -0.00067348   -0.01904096
     atom   30 type  1   force =     0.00060800    0.00048983    0.01967325
     atom   31 type  1   force =     0.00031042    0.00000325   -0.01981109
     atom   32 type  1   force =     0.00001956   -0.00006723    0.01991926
     atom   33 type  2   force =     0.00008815   -0.00089950   -0.00009760
     atom   34 type  2   force =     0.00014164   -0.00017054    0.00007126
     atom   35 type  2   force =     0.00009804    0.00077739   -0.00030958
     atom   36 type  3   force =     0.00028911    0.00053765    0.00070686
     atom   37 type  3   force =     0.00044089    0.00072075    0.00031549
     atom   38 type  3   force =     0.00008061    0.00000483   -0.00023338
     atom   39 type  3   force =     0.00038560   -0.00066674   -0.00041113
     atom   40 type  3   force =    -0.00036487   -0.00051133    0.00022257
     atom   41 type  4   force =    -0.00032763    0.00009621   -0.00008022
     atom   42 type  4   force =     0.00004932    0.00008290    0.00007596
     atom   43 type  4   force =     0.00005737    0.00054292    0.00012662
     atom   44 type  4   force =    -0.00050486    0.00041437    0.00005705
     atom   45 type  4   force =    -0.00015340   -0.00038214   -0.00007112
     atom   46 type  4   force =    -0.00026823   -0.00027427   -0.00030701
     atom   47 type  4   force =    -0.00000587    0.00038258   -0.00026609
     atom   48 type  4   force =     0.00004756   -0.00006673    0.00034103

     Total force =     0.111874     Total SCF correction =     0.001743
 !ASE

     Writing output data file calc.save

     General routines

     Parallel routines

   This run was terminated on:  19:48:48   8Apr2019

   JOB DONE.