     Program PWSCF v.5.1rc2 starts on  9Feb2019 at 22: 8: 4

     Current dimensions of program PWSCF are:
     Max number of different atomic species (ntypx) = 10
     Max number of k-points (npk) =  40000
     Max angular momentum in pseudopotentials (lmaxx) =  3

     IMPORTANT: XC functional enforced from input :
     Exchange-correlation      = PBE ( 1  4  3  4 0)
     Any further DFT definition will be discarded
     Please, verify this is what you really want

     Subspace diagonalization in iterative solution of the eigenvalue problem:
     a serial algorithm will be used

     bravais-lattice index     =            0
     lattice parameter (alat)  =       1.8897  a.u.
     unit-cell volume          =   23261.3228 (a.u.)^3
     number of atoms/cell      =           48
     number of atomic types    =            4
     number of electrons       =       654.00
     number of Kohn-Sham states=          337
     kinetic-energy cutoff     =      40.4243  Ry
     charge density cutoff     =     330.7439  Ry
     convergence threshold     =      7.3E-07
     mixing beta               =       0.2000
     number of iterations used =            8  local-TF  mixing
     Exchange-correlation      = PBE ( 1  4  3  4 0)
     nstep                     =           50

     celldm(1)=   1.889726  celldm(2)=   0.000000  celldm(3)=   0.000000
     celldm(4)=   0.000000  celldm(5)=   0.000000  celldm(6)=   0.000000

     crystal axes: (cart. coord. in units of alat)
               a(1) = (  11.534892   0.000000   0.000000 )
               a(2) = (  -5.767446   9.989509   0.000000 )
               a(3) = (   0.000000   0.000000  29.914390 )

     reciprocal axes: (cart. coord. in units 2 pi/alat)
               b(1) = (  0.086693  0.050053  0.000000 )
               b(2) = (  0.000000  0.100105  0.000000 )
               b(3) = (  0.000000  0.000000  0.033429 )

     PseudoPot. # 1 for Au read from file:
     /gpfs/pace1/project/chbe-medford/medford-share/data/pseudos/SSSP_eff_PBE/Au.UPF
     MD5 check sum: 1009843a674e36925f098327e430af60
     Pseudo is Norm-conserving, Zval = 19.0
     Generated using ONCVPSP code by D. R. Hamann
     Using radial grid of  602 points,  8 beta functions with:
                l(1) =   0
                l(2) =   0
                l(3) =   1
                l(4) =   1
                l(5) =   2
                l(6) =   2
                l(7) =   3
                l(8) =   3

     PseudoPot. # 2 for O  read from file:
     /gpfs/pace1/project/chbe-medford/medford-share/data/pseudos/SSSP_eff_PBE/O.UPF
     MD5 check sum: 734c27235a0248c51dbae37a1fbe46ec
     Pseudo is Ultrasoft + core correction, Zval =  6.0
     Generated by new atomic code, or converted to UPF format
     Using radial grid of  737 points,  5 beta functions with:
                l(1) =   0
                l(2) =   0
                l(3) =   1
                l(4) =   1
                l(5) =   2
     Q(r) pseudized with  8 coefficients,  rinner =    0.900   0.900   0.900
                                                       0.900   0.900

     PseudoPot. # 3 for C  read from file:
     /gpfs/pace1/project/chbe-medford/medford-share/data/pseudos/SSSP_eff_PBE/C.UPF
     MD5 check sum: d1aef80898a10debaa0f26306b886e00
     Pseudo is Ultrasoft + core correction, Zval =  4.0
     Generated by new atomic code, or converted to UPF format
     Using radial grid of  721 points,  4 beta functions with:
                l(1) =   0
                l(2) =   0
                l(3) =   1
                l(4) =   1
     Q(r) pseudized with  8 coefficients,  rinner =    1.100   1.100   1.100

     PseudoPot. # 4 for  H read from file:
     /gpfs/pace1/project/chbe-medford/medford-share/data/pseudos/SSSP_eff_PBE/H.UPF
     MD5 check sum: 36633979392af7100e6f6632747262d3
     Pseudo is Ultrasoft, Zval =  1.0
     Generated using "atomic" code by A. Dal Corso  v.5.0.99 svn rev. 10869
     Using radial grid of  929 points,  2 beta functions with:
                l(1) =   0
                l(2) =   0
     Q(r) pseudized with 0 coefficients

     atomic species   valence    mass     pseudopotential
        Au1           19.00   196.96650     Au( 1.00)
        O1             6.00    15.99940     O ( 1.00)
        C1             4.00    12.01100     C ( 1.00)
        H1             1.00     1.00794      H( 1.00)

     No symmetry found

   Cartesian axes

     site n.     atom                  positions (alat units)
         1           Au1 tau(   1) = (   0.0000000   0.0000000  10.0000000  )
         2           Au1 tau(   2) = (   1.4418614   0.8324591  12.3545499  )
         3           Au1 tau(   3) = (  -1.4418614   2.4973773  10.0000000  )
         4           Au1 tau(   4) = (   0.0000000   3.3298364  12.3545499  )
         5           Au1 tau(   5) = (  -2.8837229   4.9947545  10.0000000  )
         6           Au1 tau(   6) = (  -1.4418614   5.8272136  12.3545499  )
         7           Au1 tau(   7) = (  -4.3255843   7.4921318  10.0000000  )
         8           Au1 tau(   8) = (  -2.8837229   8.3245909  12.3545499  )
         9           Au1 tau(   9) = (   2.8837229   0.0000000  10.0000000  )
        10           Au1 tau(  10) = (   4.3255843   0.8324591  12.3545499  )
        11           Au1 tau(  11) = (   1.4418614   2.4973773  10.0000000  )
        12           Au1 tau(  12) = (   2.8837229   3.3298364  12.3545499  )
        13           Au1 tau(  13) = (   0.0000000   4.9947545  10.0000000  )
        14           Au1 tau(  14) = (   1.4418614   5.8272136  12.3545499  )
        15           Au1 tau(  15) = (  -1.4418614   7.4921318  10.0000000  )
        16           Au1 tau(  16) = (   0.0000000   8.3245909  12.3545499  )
        17           Au1 tau(  17) = (   5.7674458   0.0000000  10.0000000  )
        18           Au1 tau(  18) = (   7.2093072   0.8324591  12.3545499  )
        19           Au1 tau(  19) = (   4.3255843   2.4973773  10.0000000  )
        20           Au1 tau(  20) = (   5.7674458   3.3298364  12.3545499  )
        21           Au1 tau(  21) = (   2.8837229   4.9947545  10.0000000  )
        22           Au1 tau(  22) = (   4.3255843   5.8272136  12.3545499  )
        23           Au1 tau(  23) = (   1.4418614   7.4921318  10.0000000  )
        24           Au1 tau(  24) = (   2.8837229   8.3245909  12.3545499  )
        25           Au1 tau(  25) = (   8.6511686   0.0000000  10.0000000  )
        26           Au1 tau(  26) = (  10.0930301   0.8324591  12.3545499  )
        27           Au1 tau(  27) = (   7.2093072   2.4973773  10.0000000  )
        28           Au1 tau(  28) = (   8.6511686   3.3298364  12.3545499  )
        29           Au1 tau(  29) = (   5.7674458   4.9947545  10.0000000  )
        30           Au1 tau(  30) = (   7.2093072   5.8272136  12.3545499  )
        31           Au1 tau(  31) = (   4.3255843   7.4921318  10.0000000  )
        32           Au1 tau(  32) = (   5.7674458   8.3245909  12.3545499  )
        33           O1  tau(  33) = (   5.8182000   7.9058056  17.0062221  )
        34           O1  tau(  34) = (   5.7670000   3.3300000  14.8545499  )
        35           O1  tau(  35) = (   5.8179000   2.8848933  17.0810973  )
        36           C1  tau(  36) = (   5.8042000   5.6173101  17.7850125  )
        37           C1  tau(  37) = (   5.7993000   5.1962607  16.3190916  )
        38           C1  tau(  38) = (   5.7996000   7.1256773  17.9570439  )
        39           C1  tau(  39) = (   5.7661000   7.6313549  19.3759847  )
        40           C1  tau(  40) = (   5.7966000   3.6934018  16.1635194  )
        41           H1  tau(  41) = (   6.6945000   5.2216822  18.2870602  )
        42           H1  tau(  42) = (   4.9197000   5.2152707  18.2923652  )
        43           H1  tau(  43) = (   6.6881000   5.5910101  15.8137655  )
        44           H1  tau(  44) = (   4.9081000   5.5939197  15.8205260  )
        45           H1  tau(  45) = (   4.8534000   7.2846467  19.8669009  )
        46           H1  tau(  46) = (   6.6455000   7.2696997  19.9143897  )
        47           H1  tau(  47) = (   5.7756000   8.7248201  19.3784473  )
        48           H1  tau(  48) = (   5.7651000   2.3551262  14.7460809  )

     number of k points=     4  Fermi-Dirac smearing, width (Ry)=  0.0073
                       cart. coord. in units 2pi/alat
        k(    1) = (   0.0000000   0.0000000   0.0000000), wk =   0.5000000
        k(    2) = (   0.0000000  -0.0500525   0.0000000), wk =   0.5000000
        k(    3) = (   0.0433467  -0.0250263   0.0000000), wk =   0.5000000
        k(    4) = (  -0.0433467  -0.0250263   0.0000000), wk =   0.5000000

     Largest allocated arrays     est. size (Mb)     dimensions
     Largest temporary arrays     est. size (Mb)     dimensions

     Initial potential from superposition of free atoms
     Check: negative starting charge=   -0.002288

     starting charge  653.28105, renormalised to  654.00000

     negative rho (up, down):  2.291E-03 0.000E+00
     Starting wfc are   40 randomized atomic wfcs +  297 random wfc

     Self-consistent Calculation

     iteration #  1     ecut=    40.42 Ry     beta=0.20
     Davidson diagonalization with overlap
     ethr =  1.00E-02,  avg # of iterations = 11.5

     Threshold (ethr) on eigenvalues was too large:
     Diagonalizing with lowered threshold

     Davidson diagonalization with overlap
     ethr =  3.21E-04,  avg # of iterations =  2.0

     negative rho (up, down):  5.215E-05 0.000E+00

     total energy              =   -8954.72967275 Ry
     Harris-Foulkes estimate   =   -8954.96535931 Ry
     estimated scf accuracy    <       2.10775164 Ry

[...]

     End of self-consistent calculation

          k = 0.0000 0.0000 0.0000 (100843 PWs)   bands (ev):

  -106.1806-106.1103-106.1081-106.1037-106.0932-106.0913-106.0910-106.0879
  -106.0867-106.0859-106.0843-106.0841-106.0835-106.0827-106.0826-106.0815
  -106.0811-106.0808-106.0803-106.0800-106.0795-106.0785-106.0784-106.0779
  -106.0766-106.0764-106.0762-106.0755-106.0748-106.0745-106.0740-106.0731
   -57.5677 -57.5627 -57.5395 -57.5284 -57.5269 -57.5247 -57.5143 -57.5138
   -57.5066 -57.5035 -57.5031 -57.4997 -57.4987 -57.4979 -57.4954 -57.4949
   -57.4945 -57.4933 -57.4709 -57.4671 -57.4561 -57.4559 -57.4543 -57.4509
   -57.4500 -57.4459 -57.4439 -57.4431 -57.4419 -57.4416 -57.4404 -57.4402
   -57.4388 -57.4375 -57.4369 -57.4339 -57.4276 -57.4252 -57.4246 -57.4235
   -57.4228 -57.4207 -57.4152 -57.4139 -57.4136 -57.3971 -57.3955 -57.3930
   -57.3928 -57.3902 -57.3895 -57.3885 -57.3881 -57.3870 -57.3865 -57.3735
   -57.3721 -57.3696 -57.3666 -57.3665 -57.3658 -57.3655 -57.3652 -57.3491
   -57.3488 -57.3301 -57.3134 -57.3114 -57.3038 -57.3031 -57.3024 -57.2962
   -57.2812 -57.2771 -57.2742 -57.2736 -57.2702 -57.2686 -57.2675 -57.2670
   -57.2571 -57.2464 -57.2411 -57.2383 -57.2361 -57.2330 -57.2323 -57.2311
   -57.2302 -57.2291 -57.2238 -57.2220 -57.2217 -57.2195 -57.2188 -57.2164
   -23.8822 -21.7792 -21.5180 -16.0211 -14.6177 -13.1798 -11.2165  -9.1755
    -8.9463  -8.2988  -8.2632  -8.0576  -7.7019  -7.6252  -7.6244  -7.6205
    -7.6195  -7.6182  -7.5981  -7.1967  -7.0366  -7.0361  -7.0339  -7.0019
[...]
               b(3) = (  0.000000  0.000000  0.033429 )

     PseudoPot. # 1 for Au read from file:
     /gpfs/pace1/project/chbe-medford/medford-share/data/pseudos/SSSP_eff_PBE/Au.UPF
     MD5 check sum: 1009843a674e36925f098327e430af60
     Pseudo is Norm-conserving, Zval = 19.0
     Generated using ONCVPSP code by D. R. Hamann
     Using radial grid of  602 points,  8 beta functions with:
                l(1) =   0
                l(2) =   0
                l(3) =   1
                l(4) =   1
                l(5) =   2
                l(6) =   2
                l(7) =   3
                l(8) =   3

     PseudoPot. # 2 for O  read from file:
     /gpfs/pace1/project/chbe-medford/medford-share/data/pseudos/SSSP_eff_PBE/O.UPF
     MD5 check sum: 734c27235a0248c51dbae37a1fbe46ec
     Pseudo is Ultrasoft + core correction, Zval =  6.0
     Generated by new atomic code, or converted to UPF format
     Using radial grid of  737 points,  5 beta functions with:
                l(1) =   0
                l(2) =   0
                l(3) =   1
                l(4) =   1
                l(5) =   2
     Q(r) pseudized with  8 coefficients,  rinner =    0.900   0.900   0.900
                                                       0.900   0.900

     PseudoPot. # 3 for C  read from file:
     /gpfs/pace1/project/chbe-medford/medford-share/data/pseudos/SSSP_eff_PBE/C.UPF
     MD5 check sum: d1aef80898a10debaa0f26306b886e00
     Pseudo is Ultrasoft + core correction, Zval =  4.0
     Generated by new atomic code, or converted to UPF format
     Using radial grid of  721 points,  4 beta functions with:
                l(1) =   0
                l(2) =   0
                l(3) =   1
                l(4) =   1
     Q(r) pseudized with  8 coefficients,  rinner =    1.100   1.100   1.100

     PseudoPot. # 4 for  H read from file:
     /gpfs/pace1/project/chbe-medford/medford-share/data/pseudos/SSSP_eff_PBE/H.UPF
     MD5 check sum: 36633979392af7100e6f6632747262d3
     Pseudo is Ultrasoft, Zval =  1.0
     Generated using "atomic" code by A. Dal Corso  v.5.0.99 svn rev. 10869
     Using radial grid of  929 points,  2 beta functions with:
                l(1) =   0
                l(2) =   0
     Q(r) pseudized with 0 coefficients

     atomic species   valence    mass     pseudopotential
        Au1           19.00   196.96650     Au( 1.00)
        O1             6.00    15.99940     O ( 1.00)
        C1             4.00    12.01100     C ( 1.00)
        H1             1.00     1.00794      H( 1.00)

     No symmetry found

   Cartesian axes

     site n.     atom                  positions (alat units)
         1           Au1 tau(   1) = (   0.0000000   0.0000000  10.0000000  )
         2           Au1 tau(   2) = (   1.4418614   0.8324591  12.3545499  )
         3           Au1 tau(   3) = (  -1.4418614   2.4973773  10.0000000  )
         4           Au1 tau(   4) = (   0.0000000   3.3298364  12.3545499  )
         5           Au1 tau(   5) = (  -2.8837229   4.9947545  10.0000000  )
         6           Au1 tau(   6) = (  -1.4418614   5.8272136  12.3545499  )
         7           Au1 tau(   7) = (  -4.3255843   7.4921318  10.0000000  )
         8           Au1 tau(   8) = (  -2.8837229   8.3245909  12.3545499  )
         9           Au1 tau(   9) = (   2.8837229   0.0000000  10.0000000  )
        10           Au1 tau(  10) = (   4.3255843   0.8324591  12.3545499  )
        11           Au1 tau(  11) = (   1.4418614   2.4973773  10.0000000  )
        12           Au1 tau(  12) = (   2.8837229   3.3298364  12.3545499  )
        13           Au1 tau(  13) = (   0.0000000   4.9947545  10.0000000  )
        14           Au1 tau(  14) = (   1.4418614   5.8272136  12.3545499  )
        15           Au1 tau(  15) = (  -1.4418614   7.4921318  10.0000000  )
        16           Au1 tau(  16) = (   0.0000000   8.3245909  12.3545499  )
        17           Au1 tau(  17) = (   5.7674458   0.0000000  10.0000000  )
        18           Au1 tau(  18) = (   7.2093072   0.8324591  12.3545499  )
        19           Au1 tau(  19) = (   4.3255843   2.4973773  10.0000000  )
        20           Au1 tau(  20) = (   5.7674458   3.3298364  12.3545499  )
        21           Au1 tau(  21) = (   2.8837229   4.9947545  10.0000000  )
        22           Au1 tau(  22) = (   4.3255843   5.8272136  12.3545499  )
        23           Au1 tau(  23) = (   1.4418614   7.4921318  10.0000000  )
        24           Au1 tau(  24) = (   2.8837229   8.3245909  12.3545499  )
        25           Au1 tau(  25) = (   8.6511686   0.0000000  10.0000000  )
        26           Au1 tau(  26) = (  10.0930301   0.8324591  12.3545499  )
        27           Au1 tau(  27) = (   7.2093072   2.4973773  10.0000000  )
        28           Au1 tau(  28) = (   8.6511686   3.3298364  12.3545499  )
        29           Au1 tau(  29) = (   5.7674458   4.9947545  10.0000000  )
        30           Au1 tau(  30) = (   7.2093072   5.8272136  12.3545499  )
        31           Au1 tau(  31) = (   4.3255843   7.4921318  10.0000000  )
        32           Au1 tau(  32) = (   5.7674458   8.3245909  12.3545499  )
        33           O1  tau(  33) = (   5.8182000   7.9058056  17.0062221  )
        34           O1  tau(  34) = (   5.7670000   3.3300000  14.8545499  )
        35           O1  tau(  35) = (   5.8179000   2.8848933  17.0810973  )
        36           C1  tau(  36) = (   5.8042000   5.6173101  17.7850125  )
        37           C1  tau(  37) = (   5.7993000   5.1962607  16.3190916  )
        38           C1  tau(  38) = (   5.7996000   7.1256773  17.9570439  )
        39           C1  tau(  39) = (   5.7661000   7.6313549  19.3759847  )
        40           C1  tau(  40) = (   5.7966000   3.6934018  16.1635194  )
        41           H1  tau(  41) = (   6.6945000   5.2216822  18.2870602  )
        42           H1  tau(  42) = (   4.9197000   5.2152707  18.2923652  )
        43           H1  tau(  43) = (   6.6881000   5.5910101  15.8137655  )
        44           H1  tau(  44) = (   4.9081000   5.5939197  15.8205260  )
        45           H1  tau(  45) = (   4.8534000   7.2846467  19.8669009  )
        46           H1  tau(  46) = (   6.6455000   7.2696997  19.9143897  )
        47           H1  tau(  47) = (   5.7756000   8.7248201  19.3784473  )
        48           H1  tau(  48) = (   5.7651000   2.3551262  14.7460809  )

     number of k points=    10  Fermi-Dirac smearing, width (Ry)=  0.0073
                       cart. coord. in units 2pi/alat
        k(    1) = (   0.0000000   0.0000000   0.0000000), wk =   0.1250000
        k(    2) = (   0.0000000   0.0250263   0.0000000), wk =   0.2500000
        k(    3) = (   0.0000000  -0.0500525   0.0000000), wk =   0.1250000
        k(    4) = (   0.0216734   0.0375394   0.0000000), wk =   0.2500000
        k(    5) = (  -0.0216734   0.0125131   0.0000000), wk =   0.2500000
        k(    6) = (   0.0216734   0.0125131   0.0000000), wk =   0.2500000
        k(    7) = (   0.0433467  -0.0250263   0.0000000), wk =   0.1250000
        k(    8) = (  -0.0433467  -0.0250263   0.0000000), wk =   0.1250000
        k(    9) = (  -0.0216734   0.0375394   0.0000000), wk =   0.2500000
        k(   10) = (   0.0433467   0.0000000   0.0000000), wk =   0.2500000

     Largest allocated arrays     est. size (Mb)     dimensions
     Largest temporary arrays     est. size (Mb)     dimensions

     Initial potential from superposition of free atoms
     Check: negative starting charge=   -0.002288

     starting charge  653.28105, renormalised to  654.00000

     negative rho (up, down):  2.291E-03 0.000E+00
     Starting wfc are   40 randomized atomic wfcs +  297 random wfc

[...]

     Threshold (ethr) on eigenvalues was too large:
     Diagonalizing with lowered threshold

     Davidson diagonalization with overlap
     ethr =  3.28E-04,  avg # of iterations =  1.9

[...]

     iteration #  7     ecut=    40.42 Ry     beta=0.07
     Davidson diagonalization with overlap
     c_bands:  1 eigenvalues not converged
     ethr =  8.02E-06,  avg # of iterations = 11.9

[...]

     iteration #  8     ecut=    40.42 Ry     beta=0.07
     Davidson diagonalization with overlap
     c_bands:  1 eigenvalues not converged
     ethr =  3.38E-06,  avg # of iterations =  5.1

[...]

     Writing output data file calc.save
     Check: negative starting charge=   -0.002255
     NEW-OLD atomic charge density approx. for the potential
     Check: negative starting charge=   -0.002256

[...]

     Self-consistent Calculation

[...]

     total energy              =   -8954.35777635 Ry
     Harris-Foulkes estimate   =   -8954.35777637 Ry
     estimated scf accuracy    <       0.00000050 Ry

     iteration #  9     ecut=    40.42 Ry     beta=0.07
     Davidson diagonalization with overlap
     ethr =  7.70E-11,  avg # of iterations =  2.6

     negative rho (up, down):  2.982E-03 0.000E+00

     End of self-consistent calculation

[...]

          k =-0.0217 0.0375 0.0000 (101030 PWs)   bands (ev):

[...]

          k = 0.0433 0.0000 0.0000 (101030 PWs)   bands (ev):

  -105.9812-105.9792-105.9783-105.9768-105.9762-105.9752-105.9748-105.9742
  -105.9738-105.9729-105.9727-105.9725-105.9721-105.9715-105.9712-105.9709
  -105.9706-105.9703-105.9700-105.9697-105.9694-105.9692-105.9691-105.9689
  -105.9687-105.9685-105.9683-105.9678-105.9674-105.9665-105.9623-105.9576
   -57.4069 -57.3997 -57.3990 -57.3962 -57.3960 -57.3920 -57.3860 -57.3855
   -57.3846 -57.3843 -57.3819 -57.3815 -57.3769 -57.3763 -57.3743 -57.3733
   -57.3729 -57.3646 -57.3630 -57.3621 -57.3524 -57.3520 -57.3506 -57.3347
   -57.3335 -57.3329 -57.3277 -57.3269 -57.3218 -57.3216 -57.3066 -57.2994
   -57.2993 -57.2972 -57.2968 -57.2913 -57.2908 -57.2881 -57.2854 -57.2852
   -57.2839 -57.2838 -57.2820 -57.2764 -57.2760 -57.2755 -57.2744 -57.2743
   -57.2728 -57.2700 -57.2666 -57.2659 -57.2628 -57.2604 -57.2601 -57.2568
   -57.2563 -57.2559 -57.2546 -57.2539 -57.2484 -57.2375 -57.2373 -57.2324
   -57.2313 -57.2282 -57.2278 -57.2129 -57.2114 -57.2028 -57.1998 -57.1996
   -57.1928 -57.1921 -57.1907 -57.1885 -57.1805 -57.1767 -57.1760 -57.1667
   -57.1586 -57.1524 -57.1517 -57.1494 -57.1463 -57.1446 -57.1439 -57.1428
   -57.1411 -57.1400 -57.1384 -57.1373 -57.1355 -57.1344 -57.1327 -57.1300
   -23.5539 -21.8902 -21.2562 -15.8924 -14.5161 -12.9264 -10.6326  -8.9456
    -8.7054  -8.2639  -8.2631  -8.1321  -7.9879  -7.6434  -7.2527  -7.2193
    -7.2177  -6.9762  -6.9473  -6.9472  -6.8728  -6.8722  -6.8602  -6.8544
    -6.8508  -6.7445  -6.6677  -6.6674  -6.6528  -6.6524  -6.6064  -6.5986
    -6.5558  -6.4888  -6.4887  -6.3288  -6.3285  -6.2993  -6.2993  -6.1945
    -6.1943  -6.1748  -6.1477  -6.1472  -6.0808  -6.0795  -6.0212  -6.0211
    -6.0063  -6.0060  -5.9853  -5.9659  -5.9654  -5.9595  -5.8164  -5.7279
    -5.7253  -5.7089  -5.5979  -5.5949  -5.5824  -5.3109  -5.3096  -5.2629
    -5.2290  -5.2288  -5.1155  -5.1131  -5.0876  -5.0852  -5.0833  -5.0800
    -5.0695  -5.0052  -4.9998  -4.9971  -4.9827  -4.9817  -4.9714  -4.9685
    -4.9684  -4.9383  -4.9379  -4.9025  -4.8979  -4.8762  -4.8757  -4.8298
    -4.7518  -4.7468  -4.7360  -4.7357  -4.6868  -4.6132  -4.5962  -4.5951
    -4.5311  -4.5117  -4.4842  -4.4748  -4.4743  -4.4309  -4.4055  -4.3451
    -4.3448  -4.3100  -4.3092  -4.2873  -4.2871  -4.2629  -4.2628  -4.2262
    -4.1998  -4.1995  -4.1203  -4.1192  -4.1112  -4.1111  -4.0775  -4.0770
    -3.9506  -3.9501  -3.8312  -3.8195  -3.8189  -3.8108  -3.8102  -3.7187
    -3.7117  -3.6940  -3.6892  -3.6687  -3.6249  -3.6082  -3.6074  -3.4951
    -3.4187  -3.4084  -3.4053  -3.3540  -3.3485  -3.3476  -3.3010  -3.2994
    -3.2989  -3.2972  -3.2806  -3.2206  -3.2202  -3.2169  -3.2164  -3.1871
    -3.1868  -3.1264  -3.0172  -3.0090  -2.9925  -2.9921  -2.9790  -2.9787
    -2.9473  -2.9468  -2.9189  -2.9038  -2.9020  -2.8723  -2.8720  -2.7964
    -2.7951  -2.7797  -2.7787  -2.7515  -2.7110  -2.7098  -2.7075  -2.7072
    -2.6343  -2.6341  -2.5933  -2.5874  -2.5863  -2.5456  -2.5001  -2.4986
    -2.4736  -2.4270  -2.4242  -2.4156  -2.4016  -2.4013  -2.2472  -2.1238
    -2.1176  -1.6405  -1.4910  -1.4902  -1.3995  -1.3990  -1.2742  -1.2630
    -0.5646  -0.4375  -0.4369   0.4968   0.4993   0.6270   0.6357   0.6996
     1.0351

     the Fermi energy is    -0.9321 ev

!    total energy              =   -8954.35777649 Ry
     Harris-Foulkes estimate   =   -8954.35777636 Ry
     estimated scf accuracy    <       0.00000025 Ry

     The total energy is the sum of the following terms:

     one-electron contribution =  -81786.98259830 Ry
     hartree contribution      =   40725.65964865 Ry
     xc contribution           =    -856.20370794 Ry
     ewald contribution        =   32963.18278263 Ry
     smearing contrib. (-TS)   =      -0.01390154 Ry

     convergence has been achieved in   9 iterations

     Forces acting on atoms (Ry/au):

     negative rho (up, down):  2.982E-03 0.000E+00
     atom    1 type  1   force =     0.00000102    0.00000995   -0.02359955
     atom    2 type  1   force =     0.00002677    0.00000621    0.02385623
     atom    3 type  1   force =    -0.00001794   -0.00002849   -0.02398849
     atom    4 type  1   force =     0.00000078   -0.00002231    0.02391427
     atom    5 type  1   force =    -0.00000353    0.00001711   -0.02399383
     atom    6 type  1   force =    -0.00002574   -0.00000246    0.02398406
     atom    7 type  1   force =    -0.00002924   -0.00003457   -0.02374662
     atom    8 type  1   force =    -0.00001633    0.00001076    0.02389802
     atom    9 type  1   force =    -0.00003168    0.00003970   -0.02396569
     atom   10 type  1   force =    -0.00003499   -0.00016758    0.02381837
     atom   11 type  1   force =     0.00001878   -0.00003265   -0.02396823
     atom   12 type  1   force =    -0.00010611    0.00003890    0.02382527
     atom   13 type  1   force =     0.00000208   -0.00000052   -0.02399966
     atom   14 type  1   force =     0.00002840   -0.00000386    0.02397966
     atom   15 type  1   force =    -0.00000578   -0.00001640   -0.02401269
     atom   16 type  1   force =     0.00000016    0.00004705    0.02405849
     atom   17 type  1   force =     0.00000150    0.00001661   -0.02411718
     atom   18 type  1   force =     0.00002358   -0.00014733    0.02385076
     atom   19 type  1   force =    -0.00002812   -0.00002144   -0.02373434
     atom   20 type  1   force =     0.00001593    0.00004314    0.02407921
     atom   21 type  1   force =     0.00000702    0.00001669   -0.02396784
     atom   22 type  1   force =    -0.00003768    0.00001652    0.02382683
     atom   23 type  1   force =     0.00000685   -0.00001839   -0.02402000
     atom   24 type  1   force =     0.00001660    0.00000774    0.02389723
     atom   25 type  1   force =     0.00002820    0.00003624   -0.02398040
     atom   26 type  1   force =    -0.00002140    0.00000455    0.02386718
     atom   27 type  1   force =     0.00002662   -0.00002733   -0.02376608
     atom   28 type  1   force =     0.00009094    0.00003567    0.02384933
     atom   29 type  1   force =    -0.00000583    0.00006050   -0.02363752
     atom   30 type  1   force =     0.00003334    0.00001148    0.02385514
     atom   31 type  1   force =     0.00002822   -0.00003349   -0.02375198
     atom   32 type  1   force =     0.00000064   -0.00001602    0.02411434
     atom   33 type  2   force =     0.00017011    0.00002637   -0.00068095
     atom   34 type  2   force =     0.00003809    0.00041799    0.00045800
     atom   35 type  2   force =    -0.00011081   -0.00018060    0.00013593
     atom   36 type  3   force =    -0.00010205   -0.00008545   -0.00000165
     atom   37 type  3   force =     0.00008671    0.00027849   -0.00029731
     atom   38 type  3   force =     0.00019020   -0.00049725    0.00045013
     atom   39 type  3   force =    -0.00012055   -0.00063489    0.00013517
     atom   40 type  3   force =     0.00022564    0.00008213    0.00012378
     atom   41 type  4   force =    -0.00014386    0.00003688    0.00019301
     atom   42 type  4   force =     0.00017811    0.00018096    0.00018546
     atom   43 type  4   force =    -0.00016630   -0.00015880   -0.00025321
     atom   44 type  4   force =    -0.00029978   -0.00005532   -0.00021236
     atom   45 type  4   force =    -0.00008799   -0.00012407   -0.00017929
     atom   46 type  4   force =     0.00001696   -0.00009749   -0.00024132
     atom   47 type  4   force =     0.00005426    0.00114315    0.00019131
     atom   48 type  4   force =     0.00007822   -0.00017810   -0.00043103

     Total force =     0.135239     Total SCF correction =     0.002146
 !ASE

     Writing output data file calc.save

     General routines

     Parallel routines

   This run was terminated on:   1:14:18   8Apr2019

   JOB DONE.