     Program PWSCF v.5.1rc2 starts on  6Apr2019 at 22:23:50

     Current dimensions of program PWSCF are:
     Max number of different atomic species (ntypx) = 10
     Max number of k-points (npk) =  40000
     Max angular momentum in pseudopotentials (lmaxx) =  3

     IMPORTANT: XC functional enforced from input :
     Exchange-correlation      = PBE ( 1  4  3  4 0)
     Any further DFT definition will be discarded
     Please, verify this is what you really want

     Subspace diagonalization in iterative solution of the eigenvalue problem:
     a serial algorithm will be used

     bravais-lattice index     =            0
     lattice parameter (alat)  =       1.8897  a.u.
     unit-cell volume          =   17941.7315 (a.u.)^3
     number of atoms/cell      =           56
     number of atomic types    =            4
     number of electrons       =       690.00
     number of Kohn-Sham states=          355
     kinetic-energy cutoff     =      40.4243  Ry
     charge density cutoff     =     330.7439  Ry
     convergence threshold     =      3.7E-07
     mixing beta               =       0.0750
     number of iterations used =            8  local-TF  mixing
     Exchange-correlation      = PBE ( 1  4  3  4 0)
     nstep                     =           50

     celldm(1)=   1.889726  celldm(2)=   0.000000  celldm(3)=   0.000000
     celldm(4)=   0.000000  celldm(5)=   0.000000  celldm(6)=   0.000000

     crystal axes: (cart. coord. in units of alat)
               a(1) = (  10.224481   0.000000   0.000000 )
               a(2) = (  -5.112241   8.854660   0.000000 )
               a(3) = (   0.000000   0.000000  29.366660 )

     reciprocal axes: (cart. coord. in units 2 pi/alat)
               b(1) = (  0.097804  0.056467  0.000000 )
               b(2) = (  0.000000  0.112935  0.000000 )
               b(3) = (  0.000000  0.000000  0.034052 )

     PseudoPot. # 1 for Cu read from file:
     /gpfs/pace1/project/chbe-medford/medford-share/data/pseudos/SSSP_eff_PBE/Cu.UPF
     MD5 check sum: 6e991ff952a84172a2a52a1c1e996048
     Pseudo is Ultrasoft + core correction, Zval = 19.0
     Generated by new atomic code, or converted to UPF format
     Using radial grid of  867 points,  6 beta functions with:
                l(1) =   0
                l(2) =   0
                l(3) =   1
                l(4) =   1
                l(5) =   2
                l(6) =   2
     Q(r) pseudized with  8 coefficients,  rinner =    1.150   1.150   1.150
                                                       1.150   1.150

     PseudoPot. # 2 for O  read from file:
     /gpfs/pace1/project/chbe-medford/medford-share/data/pseudos/SSSP_eff_PBE/O.UPF
     MD5 check sum: 734c27235a0248c51dbae37a1fbe46ec
     Pseudo is Ultrasoft + core correction, Zval =  6.0
     Generated by new atomic code, or converted to UPF format
     Using radial grid of  737 points,  5 beta functions with:
                l(1) =   0
                l(2) =   0
                l(3) =   1
                l(4) =   1
                l(5) =   2
     Q(r) pseudized with  8 coefficients,  rinner =    0.900   0.900   0.900
                                                       0.900   0.900

     PseudoPot. # 3 for C  read from file:
     /gpfs/pace1/project/chbe-medford/medford-share/data/pseudos/SSSP_eff_PBE/C.UPF
     MD5 check sum: d1aef80898a10debaa0f26306b886e00
     Pseudo is Ultrasoft + core correction, Zval =  4.0
     Generated by new atomic code, or converted to UPF format
     Using radial grid of  721 points,  4 beta functions with:
                l(1) =   0
                l(2) =   0
                l(3) =   1
                l(4) =   1
     Q(r) pseudized with  8 coefficients,  rinner =    1.100   1.100   1.100

     PseudoPot. # 4 for  H read from file:
     /gpfs/pace1/project/chbe-medford/medford-share/data/pseudos/SSSP_eff_PBE/H.UPF
     MD5 check sum: 36633979392af7100e6f6632747262d3
     Pseudo is Ultrasoft, Zval =  1.0
     Generated using "atomic" code by A. Dal Corso  v.5.0.99 svn rev. 10869
     Using radial grid of  929 points,  2 beta functions with:
                l(1) =   0
                l(2) =   0
     Q(r) pseudized with 0 coefficients

     atomic species   valence    mass     pseudopotential
        Cu1           19.00    63.54600     Cu( 1.00)
        O1             6.00    15.99940     O ( 1.00)
        C1             4.00    12.01100     C ( 1.00)
        H1             1.00     1.00794      H( 1.00)

     No symmetry found

   Cartesian axes

     site n.     atom                  positions (alat units)
         1           Cu1 tau(   1) = (   0.0000000   0.0000000  10.0000000  )
         2           Cu1 tau(   2) = (   1.2780602   0.7378884  12.0870635  )
         3           Cu1 tau(   3) = (  -1.2780602   2.2136651  10.0000000  )
         4           Cu1 tau(   4) = (   0.0000000   2.9515535  12.0870635  )
         5           Cu1 tau(   5) = (  -2.5561203   4.4273302  10.0000000  )
         6           Cu1 tau(   6) = (  -1.2780602   5.1652186  12.0870635  )
         7           Cu1 tau(   7) = (  -3.8341805   6.6409954  10.0000000  )
         8           Cu1 tau(   8) = (  -2.5561203   7.3788837  12.0870635  )
         9           Cu1 tau(   9) = (   2.5561203   0.0000000  10.0000000  )
        10           Cu1 tau(  10) = (   3.8341805   0.7378884  12.0870635  )
        11           Cu1 tau(  11) = (   1.2780602   2.2136651  10.0000000  )
        12           Cu1 tau(  12) = (   2.5561203   2.9515535  12.0870635  )
        13           Cu1 tau(  13) = (   0.0000000   4.4273302  10.0000000  )
        14           Cu1 tau(  14) = (   1.2780602   5.1652186  12.0870635  )
        15           Cu1 tau(  15) = (  -1.2780602   6.6409954  10.0000000  )
        16           Cu1 tau(  16) = (   0.0000000   7.3788837  12.0870635  )
        17           Cu1 tau(  17) = (   5.1122406   0.0000000  10.0000000  )
        18           Cu1 tau(  18) = (   6.3903008   0.7378884  12.0870635  )
        19           Cu1 tau(  19) = (   3.8341805   2.2136651  10.0000000  )
        20           Cu1 tau(  20) = (   5.1122406   2.9515535  12.0870635  )
        21           Cu1 tau(  21) = (   2.5561203   4.4273302  10.0000000  )
        22           Cu1 tau(  22) = (   3.8341805   5.1652186  12.0870635  )
        23           Cu1 tau(  23) = (   1.2780602   6.6409954  10.0000000  )
        24           Cu1 tau(  24) = (   2.5561203   7.3788837  12.0870635  )
        25           Cu1 tau(  25) = (   7.6683609   0.0000000  10.0000000  )
        26           Cu1 tau(  26) = (   8.9464211   0.7378884  12.0870635  )
        27           Cu1 tau(  27) = (   6.3903008   2.2136651  10.0000000  )
        28           Cu1 tau(  28) = (   7.6683609   2.9515535  12.0870635  )
        29           Cu1 tau(  29) = (   5.1122406   4.4273302  10.0000000  )
        30           Cu1 tau(  30) = (   6.3903008   5.1652186  12.0870635  )
        31           Cu1 tau(  31) = (   3.8341805   6.6409954  10.0000000  )
        32           Cu1 tau(  32) = (   5.1122406   7.3788837  12.0870635  )
        33           O1  tau(  33) = (   4.1891000   2.2872590  18.9716303  )
        34           O1  tau(  34) = (   4.3452000   4.7867810  17.9570799  )
        35           O1  tau(  35) = (   2.0731000   0.6569676  18.7460788  )
        36           O1  tau(  36) = (   1.5808000   5.2049746  17.3652866  )
        37           O1  tau(  37) = (   2.6983000   1.1599736  15.3510783  )
        38           O1  tau(  38) = (   3.8340000   5.1650000  14.5870635  )
        39           O1  tau(  39) = (  -1.2069406   8.8166290  16.8472080  )
        40           O1  tau(  40) = (   2.8297000   6.8879924  15.6774993  )
        41           C1  tau(  41) = (   3.0478000   2.7754892  18.2478338  )
        42           C1  tau(  42) = (   3.5588000   3.8240275  17.2408314  )
        43           C1  tau(  43) = (   2.2833000   1.5768977  17.6717220  )
        44           C1  tau(  44) = (   2.4914000   4.6036065  16.4587505  )
        45           C1  tau(  45) = (   3.0561000   0.8125050  16.6116487  )
        46           C1  tau(  46) = (   3.0564000   5.6915640  15.5662721  )
        47           H1  tau(  47) = (   2.4217000   3.2585570  19.0080661  )
        48           H1  tau(  48) = (   4.2581000   3.3495597  16.5433109  )
        49           H1  tau(  49) = (   1.3059000   1.8766897  17.2802197  )
        50           H1  tau(  50) = (   1.9120000   3.9192121  15.8290187  )
        51           H1  tau(  51) = (   4.6346000   3.0561628  19.3666601  )
        52           H1  tau(  52) = (   3.7552000   5.2399983  18.5836969  )
        53           H1  tau(  53) = (  -3.6329406   8.8138329  18.4194216  )
        54           H1  tau(  54) = (   0.8433000   5.5672827  16.8451709  )
        55           H1  tau(  55) = (   3.2010000   0.6566879  14.6755388  )
        56           H1  tau(  56) = (   4.1943000   5.8578596  13.9934023  )

     number of k points=    10  Fermi-Dirac smearing, width (Ry)=  0.0073
                       cart. coord. in units 2pi/alat
        k(    1) = (   0.0000000   0.0000000   0.0000000), wk =   0.1250000
        k(    2) = (   0.0000000   0.0282337   0.0000000), wk =   0.2500000
        k(    3) = (   0.0000000  -0.0564674   0.0000000), wk =   0.1250000
        k(    4) = (   0.0244511   0.0423506   0.0000000), wk =   0.2500000
        k(    5) = (  -0.0244511   0.0141169   0.0000000), wk =   0.2500000
        k(    6) = (   0.0244511   0.0141169   0.0000000), wk =   0.2500000
        k(    7) = (   0.0489022  -0.0282337   0.0000000), wk =   0.1250000
        k(    8) = (  -0.0489022  -0.0282337   0.0000000), wk =   0.1250000
        k(    9) = (  -0.0244511   0.0423506   0.0000000), wk =   0.2500000
        k(   10) = (   0.0489022  -0.0000000   0.0000000), wk =   0.2500000

     Largest allocated arrays     est. size (Mb)     dimensions
     Largest temporary arrays     est. size (Mb)     dimensions

     Initial potential from superposition of free atoms
     Check: negative starting charge=   -0.009618

     starting charge  657.99959, renormalised to  690.00000

     negative rho (up, down):  1.009E-02 0.000E+00
     Starting wfc are  482 randomized atomic wfcs

     Self-consistent Calculation

     iteration #  1     ecut=    40.42 Ry     beta=0.07
     Davidson diagonalization with overlap
     ethr =  1.00E-02,  avg # of iterations =  5.1

     negative rho (up, down):  1.579E-01 0.000E+00

     total energy              =  -13337.79371686 Ry
     Harris-Foulkes estimate   =  -13352.40414071 Ry
     estimated scf accuracy    <    1808.50678931 Ry

[...]

     End of self-consistent calculation

          k = 0.0000 0.0000 0.0000 ( 78011 PWs)   bands (ev):

  -113.9015-113.8057-113.8000-113.7746-113.7724-113.7683-113.7671-113.7658
  -113.7652-113.7643-113.7630-113.7623-113.7617-113.7612-113.7600-113.7594
  -113.7591-113.7585-113.7575-113.7570-113.7565-113.7561-113.7558-113.7552
  -113.7547-113.7540-113.7530-113.7520-113.7512-113.7510-113.7499-113.7495
   -71.3376 -71.3230 -71.2589 -71.2489 -71.2445 -71.2419 -71.2389 -71.2338
   -71.2316 -71.2295 -71.2260 -71.2244 -71.2230 -71.2204 -71.2183 -71.2177
[...]
              0.766836090993375E+01              0.000000000000000E+00              0.100000000000000E+02
              0.894642106158938E+01              0.737888372598909E+00              0.120870634880936E+02
              0.639030075827813E+01              0.221366511779673E+01              0.100000000000000E+02
              0.766836090993375E+01              0.295155349039564E+01              0.120870634880936E+02
              0.511224060662250E+01              0.442733023559346E+01              0.100000000000000E+02
              0.639030075827813E+01              0.516521860819236E+01              0.120870634880936E+02
              0.383418045496688E+01              0.664099535339018E+01              0.100000000000000E+02
              0.511224060662250E+01              0.737888372598909E+01              0.120870634880936E+02
              0.420518001063025E+01              0.225594354945096E+01              0.189847895021381E+02
              0.429494375674518E+01              0.481505104365728E+01              0.180215881319516E+02
              0.190735197610865E+01              0.770152978330639E+00              0.187947550902165E+02
              0.145248906533302E+01              0.501074620820488E+01              0.174349008769941E+02
              0.275242488384372E+01              0.127949525042379E+01              0.153807452523683E+02
              0.405755620581201E+01              0.518329803646749E+01              0.149538032229127E+02
              0.379972481728888E+01             -0.162634234337980E+00              0.168034700740824E+02
              0.262018458173130E+01              0.680090648611474E+01              0.157093378863949E+02
              0.306812449300157E+01              0.275247105199222E+01              0.182963850279714E+02
              0.353335121660694E+01              0.383145154013424E+01              0.173017966760734E+02
              0.229031980150641E+01              0.156370861284037E+01              0.176875398707129E+02
              0.241611047278521E+01              0.452294445590156E+01              0.165178226401988E+02
              0.306764754521217E+01              0.784053581548094E+00              0.166217390891486E+02
              0.302774964409518E+01              0.565273059397736E+01              0.156973986224075E+02
              0.234250872626739E+01              0.321314929046400E+01              0.189997596136159E+02
              0.423838782232283E+01              0.339525763251344E+01              0.165844191122777E+02
              0.141403570263467E+01              0.197224937460895E+01              0.171657856186621E+02
              0.196899994821821E+01              0.380108127277590E+01              0.158040646729998E+02
              0.474032291681161E+01              0.304528590372999E+01              0.191830271243334E+02
              0.364504553516967E+01              0.537824773572650E+01              0.184806726044451E+02
              0.151798946963378E+01             -0.554868722927322E-01              0.184731945205819E+02
              0.105790512278551E+01              0.582301173035035E+01              0.170533806889123E+02
              0.323217507066656E+01              0.769781543968070E+00              0.146927565101577E+02
              0.442320935848794E+01              0.591329226454652E+01              0.143977823004357E+02
             -0.157684541625738E-03              0.744908299523951E-04             -0.999357980411345E-03
              0.164235524705396E-03             -0.284091544668188E-03              0.129768393291849E-02
             -0.153020901603213E-04             -0.572254627515885E-04             -0.628767442030498E-03
             -0.648413826387678E-04              0.163897725495313E-03              0.739292329799276E-03
[...]
             -0.710066717071451E-03             -0.325402406571001E-02              0.127017691883605E-02
              0.484165945662995E-02              0.720098500071843E-02              0.585621792488415E-02
             -0.464468207097692E-02             -0.153765396751216E-02              0.291204814185332E-02
              0.212348186075130E-02             -0.918690587344899E-02              0.278770089630269E-02
             -0.614758070868717E-02              0.364809214832784E-02              0.225237252899669E-02
              0.396215752421296E-02             -0.653133518257745E-03             -0.393534671432540E-03
              0.166862471709779E-02             -0.391941360626336E-02             -0.504153236378932E-03
             -0.892264365601101E-02              0.595935090193292E-02              0.352186739563178E-03
              0.951497382392181E-03              0.518647695867998E-03             -0.438151505229701E-03
              0.357910484240760E-02              0.220730215658393E-02              0.161433387547619E-02
             -0.255689858290249E-02              0.102771667654062E-02              0.444330670493760E-02
             -0.169900164482812E-02             -0.690200702323009E-02             -0.281211419355961E-02
              0.558161963410059E-02             -0.198408267318522E-02              0.340482282982614E-02
              0.573113832066904E-02             -0.437253638697410E-02              0.253791534677120E-02
             -0.258202067271434E-02              0.274938992739821E-02              0.408178316602234E-02

     Writing output data file calc.save

     General routines

     Parallel routines

   This run was terminated on:   2:36:33  10Apr2019

   JOB DONE.
  python dir          : /gpfs/pace1/project/chbe-medford/medford-share/gits/frozen/ben_espresso_8_24_2017/espresso
  espresso dir        : /nv/hp22/amedford6/medford-shared/builds/espresso/5.1.r11289-pybeef/intel-16.0+mvapich2-2.2+mkl-11.3/espresso-5.1.r11289-pybeef/bin
  pseudo dir          : /gpfs/pace1/project/chbe-medford/medford-share/data/pseudos/SSSP_eff_PBE
  ase-espresso py git : GITVERSION

     Program PWSCF v.5.1rc2 starts on 15Apr2019 at 23:51:41

     Current dimensions of program PWSCF are:
     Max number of different atomic species (ntypx) = 10
     Max number of k-points (npk) =  40000
     Max angular momentum in pseudopotentials (lmaxx) =  3

     IMPORTANT: XC functional enforced from input :
     Exchange-correlation      = PBE ( 1  4  3  4 0)
     Any further DFT definition will be discarded
     Please, verify this is what you really want

     Subspace diagonalization in iterative solution of the eigenvalue problem:
     a serial algorithm will be used

     bravais-lattice index     =            0
     lattice parameter (alat)  =       1.8897  a.u.
     unit-cell volume          =   17941.7315 (a.u.)^3
     number of atoms/cell      =           56
     number of atomic types    =            4
     number of electrons       =       690.00
     number of Kohn-Sham states=          355
     kinetic-energy cutoff     =      40.4243  Ry
     charge density cutoff     =     330.7439  Ry
     convergence threshold     =      3.7E-07
     mixing beta               =       0.1500
     number of iterations used =            8  local-TF  mixing
     Exchange-correlation      = PBE ( 1  4  3  4 0)
     nstep                     =           50

     celldm(1)=   1.889726  celldm(2)=   0.000000  celldm(3)=   0.000000
     celldm(4)=   0.000000  celldm(5)=   0.000000  celldm(6)=   0.000000

     crystal axes: (cart. coord. in units of alat)
               a(1) = (  10.224481   0.000000   0.000000 )
               a(2) = (  -5.112241   8.854660   0.000000 )
               a(3) = (   0.000000   0.000000  29.366660 )

     reciprocal axes: (cart. coord. in units 2 pi/alat)
               b(1) = (  0.097804  0.056467  0.000000 )
               b(2) = (  0.000000  0.112935  0.000000 )
               b(3) = (  0.000000  0.000000  0.034052 )

     PseudoPot. # 1 for Cu read from file:
     /gpfs/pace1/project/chbe-medford/medford-share/data/pseudos/SSSP_eff_PBE/Cu.UPF
     MD5 check sum: 6e991ff952a84172a2a52a1c1e996048
     Pseudo is Ultrasoft + core correction, Zval = 19.0
     Generated by new atomic code, or converted to UPF format
     Using radial grid of  867 points,  6 beta functions with:
                l(1) =   0
                l(2) =   0
                l(3) =   1
                l(4) =   1
                l(5) =   2
                l(6) =   2
     Q(r) pseudized with  8 coefficients,  rinner =    1.150   1.150   1.150
                                                       1.150   1.150

     PseudoPot. # 2 for O  read from file:
     /gpfs/pace1/project/chbe-medford/medford-share/data/pseudos/SSSP_eff_PBE/O.UPF
     MD5 check sum: 734c27235a0248c51dbae37a1fbe46ec
     Pseudo is Ultrasoft + core correction, Zval =  6.0
     Generated by new atomic code, or converted to UPF format
     Using radial grid of  737 points,  5 beta functions with:
                l(1) =   0
                l(2) =   0
                l(3) =   1
                l(4) =   1
                l(5) =   2
     Q(r) pseudized with  8 coefficients,  rinner =    0.900   0.900   0.900
                                                       0.900   0.900

     PseudoPot. # 3 for C  read from file:
     /gpfs/pace1/project/chbe-medford/medford-share/data/pseudos/SSSP_eff_PBE/C.UPF
     MD5 check sum: d1aef80898a10debaa0f26306b886e00
     Pseudo is Ultrasoft + core correction, Zval =  4.0
     Generated by new atomic code, or converted to UPF format
     Using radial grid of  721 points,  4 beta functions with:
                l(1) =   0
                l(2) =   0
                l(3) =   1
                l(4) =   1
     Q(r) pseudized with  8 coefficients,  rinner =    1.100   1.100   1.100

     PseudoPot. # 4 for  H read from file:
     /gpfs/pace1/project/chbe-medford/medford-share/data/pseudos/SSSP_eff_PBE/H.UPF
     MD5 check sum: 36633979392af7100e6f6632747262d3
     Pseudo is Ultrasoft, Zval =  1.0
     Generated using "atomic" code by A. Dal Corso  v.5.0.99 svn rev. 10869
     Using radial grid of  929 points,  2 beta functions with:
                l(1) =   0
                l(2) =   0
     Q(r) pseudized with 0 coefficients

     atomic species   valence    mass     pseudopotential
        Cu1           19.00    63.54600     Cu( 1.00)
        O1             6.00    15.99940     O ( 1.00)
        C1             4.00    12.01100     C ( 1.00)
        H1             1.00     1.00794      H( 1.00)

     No symmetry found

   Cartesian axes

     site n.     atom                  positions (alat units)
         1           Cu1 tau(   1) = (   0.0000000   0.0000000  10.0000000  )
         2           Cu1 tau(   2) = (   1.2780602   0.7378884  12.0870635  )
         3           Cu1 tau(   3) = (  -1.2780602   2.2136651  10.0000000  )
         4           Cu1 tau(   4) = (   0.0000000   2.9515535  12.0870635  )
         5           Cu1 tau(   5) = (  -2.5561203   4.4273302  10.0000000  )
         6           Cu1 tau(   6) = (  -1.2780602   5.1652186  12.0870635  )
         7           Cu1 tau(   7) = (  -3.8341805   6.6409954  10.0000000  )
         8           Cu1 tau(   8) = (  -2.5561203   7.3788837  12.0870635  )
         9           Cu1 tau(   9) = (   2.5561203   0.0000000  10.0000000  )
        10           Cu1 tau(  10) = (   3.8341805   0.7378884  12.0870635  )
        11           Cu1 tau(  11) = (   1.2780602   2.2136651  10.0000000  )
        12           Cu1 tau(  12) = (   2.5561203   2.9515535  12.0870635  )
        13           Cu1 tau(  13) = (   0.0000000   4.4273302  10.0000000  )
        14           Cu1 tau(  14) = (   1.2780602   5.1652186  12.0870635  )
        15           Cu1 tau(  15) = (  -1.2780602   6.6409954  10.0000000  )
        16           Cu1 tau(  16) = (   0.0000000   7.3788837  12.0870635  )
        17           Cu1 tau(  17) = (   5.1122406   0.0000000  10.0000000  )
        18           Cu1 tau(  18) = (   6.3903008   0.7378884  12.0870635  )
        19           Cu1 tau(  19) = (   3.8341805   2.2136651  10.0000000  )
        20           Cu1 tau(  20) = (   5.1122406   2.9515535  12.0870635  )
        21           Cu1 tau(  21) = (   2.5561203   4.4273302  10.0000000  )
        22           Cu1 tau(  22) = (   3.8341805   5.1652186  12.0870635  )
        23           Cu1 tau(  23) = (   1.2780602   6.6409954  10.0000000  )
        24           Cu1 tau(  24) = (   2.5561203   7.3788837  12.0870635  )
        25           Cu1 tau(  25) = (   7.6683609   0.0000000  10.0000000  )
        26           Cu1 tau(  26) = (   8.9464211   0.7378884  12.0870635  )
        27           Cu1 tau(  27) = (   6.3903008   2.2136651  10.0000000  )
        28           Cu1 tau(  28) = (   7.6683609   2.9515535  12.0870635  )
        29           Cu1 tau(  29) = (   5.1122406   4.4273302  10.0000000  )
        30           Cu1 tau(  30) = (   6.3903008   5.1652186  12.0870635  )
        31           Cu1 tau(  31) = (   3.8341805   6.6409954  10.0000000  )
        32           Cu1 tau(  32) = (   5.1122406   7.3788837  12.0870635  )
        33           O1  tau(  33) = (   4.2025010   2.2554349  18.9902706  )
        34           O1  tau(  34) = (   4.3038042   4.8143591  18.0159967  )
        35           O1  tau(  35) = (   1.9190346   0.7715535  18.7962150  )
        36           O1  tau(  36) = (   1.4573764   5.0205794  17.4298449  )
        37           O1  tau(  37) = (   2.7404616   1.2759221  15.3772455  )
        38           O1  tau(  38) = (   4.0428304   5.1834903  14.9286038  )
        39           O1  tau(  39) = (  -1.2958036   8.7029815  16.8057804  )
        40           O1  tau(  40) = (   2.6430897   6.8064051  15.7057416  )
        41           C1  tau(  41) = (   3.0687151   2.7532429  18.2919125  )
        42           C1  tau(  42) = (   3.5376000   3.8301824  17.2994413  )
        43           C1  tau(  43) = (   2.2946512   1.5644831  17.6870530  )
        44           C1  tau(  44) = (   2.4185774   4.5271078  16.5164712  )
        45           C1  tau(  45) = (   3.0703630   0.7812285  16.6171585  )
        46           C1  tau(  46) = (   3.0306955   5.6522026  15.6887036  )
        47           H1  tau(  47) = (   2.3418923   3.2110504  18.9933235  )
        48           H1  tau(  48) = (   4.2361016   3.3981168  16.5742436  )
        49           H1  tau(  49) = (   1.4073992   1.9668841  17.1586191  )
        50           H1  tau(  50) = (   1.9696878   3.8083919  15.8003080  )
        51           H1  tau(  51) = (   4.7340114   3.0465785  19.1944807  )
        52           H1  tau(  52) = (   3.6549663   5.3728634  18.4838290  )
        53           H1  tau(  53) = (  -3.5984720   8.7988231  18.4753774  )
        54           H1  tau(  54) = (   1.0310999   5.8034070  17.0460276  )
        55           H1  tau(  55) = (   3.2231981   0.7624256  14.6937480  )
        56           H1  tau(  56) = (   4.4066321   5.9028267  14.3666100  )

     number of k points=    10  Fermi-Dirac smearing, width (Ry)=  0.0073
                       cart. coord. in units 2pi/alat
        k(    1) = (   0.0000000   0.0000000   0.0000000), wk =   0.1250000
        k(    2) = (   0.0000000   0.0282337   0.0000000), wk =   0.2500000
        k(    3) = (   0.0000000  -0.0564674   0.0000000), wk =   0.1250000
        k(    4) = (   0.0244511   0.0423506   0.0000000), wk =   0.2500000
        k(    5) = (  -0.0244511   0.0141169   0.0000000), wk =   0.2500000
        k(    6) = (   0.0244511   0.0141169   0.0000000), wk =   0.2500000
        k(    7) = (   0.0489022  -0.0282337   0.0000000), wk =   0.1250000
        k(    8) = (  -0.0489022  -0.0282337   0.0000000), wk =   0.1250000
        k(    9) = (  -0.0244511   0.0423506   0.0000000), wk =   0.2500000
        k(   10) = (   0.0489022  -0.0000000   0.0000000), wk =   0.2500000

     Largest allocated arrays     est. size (Mb)     dimensions
     Largest temporary arrays     est. size (Mb)     dimensions

     Initial potential from superposition of free atoms
     Check: negative starting charge=   -0.009648

     starting charge  657.99959, renormalised to  690.00000

     negative rho (up, down):  1.012E-02 0.000E+00
     Starting wfc are  482 randomized atomic wfcs

     Self-consistent Calculation

     iteration #  1     ecut=    40.42 Ry     beta=0.15
     Davidson diagonalization with overlap
     ethr =  1.00E-02,  avg # of iterations =  5.1

     negative rho (up, down):  3.137E-01 0.000E+00

     total energy              =  -13324.70007284 Ry
     Harris-Foulkes estimate   =  -13354.40707237 Ry
     estimated scf accuracy    <    1876.25164812 Ry

     iteration #  2     ecut=    40.42 Ry     beta=0.15
     Davidson diagonalization with overlap