     Program PWSCF v.5.1rc2 starts on  9Feb2019 at 22:48: 6

     Current dimensions of program PWSCF are:
     Max number of different atomic species (ntypx) = 10
     Max number of k-points (npk) =  40000
     Max angular momentum in pseudopotentials (lmaxx) =  3

     IMPORTANT: XC functional enforced from input :
     Exchange-correlation      = PBE ( 1  4  3  4 0)
     Any further DFT definition will be discarded
     Please, verify this is what you really want

     Subspace diagonalization in iterative solution of the eigenvalue problem:
     a serial algorithm will be used

     bravais-lattice index     =            0
     lattice parameter (alat)  =       1.8897  a.u.
     unit-cell volume          =   18274.0366 (a.u.)^3
     number of atoms/cell      =           47
     number of atomic types    =            4
     number of electrons       =       658.00
     number of Kohn-Sham states=          339
     kinetic-energy cutoff     =      40.4243  Ry
     charge density cutoff     =     330.7439  Ry
     convergence threshold     =      7.3E-07
     mixing beta               =       0.2000
     number of iterations used =            8  local-TF  mixing
     Exchange-correlation      = PBE ( 1  4  3  4 0)
     nstep                     =           50

     celldm(1)=   1.889726  celldm(2)=   0.000000  celldm(3)=   0.000000
     celldm(4)=   0.000000  celldm(5)=   0.000000  celldm(6)=   0.000000

     crystal axes: (cart. coord. in units of alat)
               a(1) = (  10.224481   0.000000   0.000000 )
               a(2) = (  -5.112241   8.854660   0.000000 )
               a(3) = (   0.000000   0.000000  29.910570 )

     reciprocal axes: (cart. coord. in units 2 pi/alat)
               b(1) = (  0.097804  0.056467  0.000000 )
               b(2) = (  0.000000  0.112935  0.000000 )
               b(3) = (  0.000000  0.000000  0.033433 )

     PseudoPot. # 1 for Cu read from file:
     /gpfs/pace1/project/chbe-medford/medford-share/data/pseudos/SSSP_eff_PBE/Cu.UPF
     MD5 check sum: 6e991ff952a84172a2a52a1c1e996048
     Pseudo is Ultrasoft + core correction, Zval = 19.0
     Generated by new atomic code, or converted to UPF format
     Using radial grid of  867 points,  6 beta functions with:
                l(1) =   0
                l(2) =   0
                l(3) =   1
                l(4) =   1
                l(5) =   2
                l(6) =   2
     Q(r) pseudized with  8 coefficients,  rinner =    1.150   1.150   1.150
                                                       1.150   1.150

     PseudoPot. # 2 for O  read from file:
     /gpfs/pace1/project/chbe-medford/medford-share/data/pseudos/SSSP_eff_PBE/O.UPF
     MD5 check sum: 734c27235a0248c51dbae37a1fbe46ec
     Pseudo is Ultrasoft + core correction, Zval =  6.0
     Generated by new atomic code, or converted to UPF format
     Using radial grid of  737 points,  5 beta functions with:
                l(1) =   0
                l(2) =   0
                l(3) =   1
                l(4) =   1
                l(5) =   2
     Q(r) pseudized with  8 coefficients,  rinner =    0.900   0.900   0.900
                                                       0.900   0.900

     PseudoPot. # 3 for C  read from file:
     /gpfs/pace1/project/chbe-medford/medford-share/data/pseudos/SSSP_eff_PBE/C.UPF
     MD5 check sum: d1aef80898a10debaa0f26306b886e00
     Pseudo is Ultrasoft + core correction, Zval =  4.0
     Generated by new atomic code, or converted to UPF format
     Using radial grid of  721 points,  4 beta functions with:
                l(1) =   0
                l(2) =   0
                l(3) =   1
                l(4) =   1
     Q(r) pseudized with  8 coefficients,  rinner =    1.100   1.100   1.100

     PseudoPot. # 4 for  H read from file:
     /gpfs/pace1/project/chbe-medford/medford-share/data/pseudos/SSSP_eff_PBE/H.UPF
     MD5 check sum: 36633979392af7100e6f6632747262d3
     Pseudo is Ultrasoft, Zval =  1.0
     Generated using "atomic" code by A. Dal Corso  v.5.0.99 svn rev. 10869
     Using radial grid of  929 points,  2 beta functions with:
                l(1) =   0
                l(2) =   0
     Q(r) pseudized with 0 coefficients

     atomic species   valence    mass     pseudopotential
        Cu1           19.00    63.54600     Cu( 1.00)
        O1             6.00    15.99940     O ( 1.00)
        C1             4.00    12.01100     C ( 1.00)
        H1             1.00     1.00794      H( 1.00)

     No symmetry found

   Cartesian axes

     site n.     atom                  positions (alat units)
         1           Cu1 tau(   1) = (   0.0000000   0.0000000  10.0000000  )
         2           Cu1 tau(   2) = (   1.2780602   0.7378884  12.0870635  )
         3           Cu1 tau(   3) = (  -1.2780602   2.2136651  10.0000000  )
         4           Cu1 tau(   4) = (   0.0000000   2.9515535  12.0870635  )
         5           Cu1 tau(   5) = (  -2.5561203   4.4273302  10.0000000  )
         6           Cu1 tau(   6) = (  -1.2780602   5.1652186  12.0870635  )
         7           Cu1 tau(   7) = (  -3.8341805   6.6409954  10.0000000  )
         8           Cu1 tau(   8) = (  -2.5561203   7.3788837  12.0870635  )
         9           Cu1 tau(   9) = (   2.5561203   0.0000000  10.0000000  )
        10           Cu1 tau(  10) = (   3.8341805   0.7378884  12.0870635  )
        11           Cu1 tau(  11) = (   1.2780602   2.2136651  10.0000000  )
        12           Cu1 tau(  12) = (   2.5561203   2.9515535  12.0870635  )
        13           Cu1 tau(  13) = (   0.0000000   4.4273302  10.0000000  )
        14           Cu1 tau(  14) = (   1.2780602   5.1652186  12.0870635  )
        15           Cu1 tau(  15) = (  -1.2780602   6.6409954  10.0000000  )
        16           Cu1 tau(  16) = (   0.0000000   7.3788837  12.0870635  )
        17           Cu1 tau(  17) = (   5.1122406   0.0000000  10.0000000  )
        18           Cu1 tau(  18) = (   6.3903008   0.7378884  12.0870635  )
        19           Cu1 tau(  19) = (   3.8341805   2.2136651  10.0000000  )
        20           Cu1 tau(  20) = (   5.1122406   2.9515535  12.0870635  )
        21           Cu1 tau(  21) = (   2.5561203   4.4273302  10.0000000  )
        22           Cu1 tau(  22) = (   3.8341805   5.1652186  12.0870635  )
        23           Cu1 tau(  23) = (   1.2780602   6.6409954  10.0000000  )
        24           Cu1 tau(  24) = (   2.5561203   7.3788837  12.0870635  )
        25           Cu1 tau(  25) = (   7.6683609   0.0000000  10.0000000  )
        26           Cu1 tau(  26) = (   8.9464211   0.7378884  12.0870635  )
        27           Cu1 tau(  27) = (   6.3903008   2.2136651  10.0000000  )
        28           Cu1 tau(  28) = (   7.6683609   2.9515535  12.0870635  )
        29           Cu1 tau(  29) = (   5.1122406   4.4273302  10.0000000  )
        30           Cu1 tau(  30) = (   6.3903008   5.1652186  12.0870635  )
        31           Cu1 tau(  31) = (   3.8341805   6.6409954  10.0000000  )
        32           Cu1 tau(  32) = (   5.1122406   7.3788837  12.0870635  )
        33           O1  tau(  33) = (   1.2780000   5.1650000  14.5870635  )
        34           O1  tau(  34) = (   3.2910351   6.4445000  18.1623425  )
        35           O1  tau(  35) = (   0.4572300   4.8121000  16.6792481  )
        36           O1  tau(  36) = (   3.3572155   4.9979000  19.9105704  )
        37           C1  tau(  37) = (   2.8466743   4.5481000  16.2258871  )
        38           C1  tau(  38) = (   3.0142348   4.1726000  17.6717104  )
        39           C1  tau(  39) = (   1.3984576   4.8387000  15.9005021  )
        40           C1  tau(  40) = (   3.2360857   5.2096000  18.7135673  )
        41           C1  tau(  41) = (   2.9421491   2.8998000  18.0904543  )
        42           H1  tau(  42) = (   3.4602465   5.4163000  15.9648253  )
        43           H1  tau(  43) = (   3.1707627   3.7170000  15.5868247  )
        44           H1  tau(  44) = (   2.7680862   2.0932000  17.3849686  )
        45           H1  tau(  45) = (   3.0505197   2.6176000  19.1323576  )
        46           H1  tau(  46) = (   0.3495546   5.3687000  14.3449490  )
        47           H1  tau(  47) = (   3.4379563   7.1417000  18.8366176  )

     number of k points=     4  Fermi-Dirac smearing, width (Ry)=  0.0073
                       cart. coord. in units 2pi/alat
        k(    1) = (   0.0000000   0.0000000   0.0000000), wk =   0.5000000
        k(    2) = (   0.0000000  -0.0564674   0.0000000), wk =   0.5000000
        k(    3) = (   0.0489022  -0.0282337   0.0000000), wk =   0.5000000
        k(    4) = (  -0.0489022  -0.0282337   0.0000000), wk =   0.5000000

     Largest allocated arrays     est. size (Mb)     dimensions
     Largest temporary arrays     est. size (Mb)     dimensions

     Initial potential from superposition of free atoms
     Check: negative starting charge=   -0.010029

     starting charge  625.99967, renormalised to  658.00000

     negative rho (up, down):  1.054E-02 0.000E+00
     Starting wfc are  458 randomized atomic wfcs

     Self-consistent Calculation

     iteration #  1     ecut=    40.42 Ry     beta=0.20
     Davidson diagonalization with overlap
     ethr =  1.00E-02,  avg # of iterations =  4.2

     negative rho (up, down):  2.791E-01 0.000E+00

     total energy              =  -13128.57067272 Ry
     Harris-Foulkes estimate   =  -13159.63766593 Ry
     estimated scf accuracy    <     718.53179258 Ry

[...]

     End of self-consistent calculation

          k = 0.0000 0.0000 0.0000 ( 79441 PWs)   bands (ev):

  -114.0235-114.0008-113.9830-113.9773-113.9754-113.9738-113.9724-113.9718
  -113.9706-113.9697-113.9693-113.9683-113.9677-113.9673-113.9671-113.9668
  -113.9664-113.9661-113.9657-113.9655-113.9654-113.9646-113.9639-113.9637
  -113.9625-113.9618-113.9612-113.9604-113.9600-113.9588-113.9584-113.9580
   -71.4686 -71.4643 -71.4483 -71.4410 -71.4399 -71.4384 -71.4361 -71.4349
   -71.4326 -71.4310 -71.4288 -71.4272 -71.4256 -71.4251 -71.4233 -71.4229
   -71.4225 -71.4219 -71.4175 -71.4131 -71.4078 -71.4064 -71.4043 -71.4033
   -71.4021 -71.4005 -71.3992 -71.3979 -71.3973 -71.3966 -71.3965 -71.3958
   -71.3956 -71.3951 -71.3948 -71.3945 -71.3902 -71.3894 -71.3888 -71.3883
   -71.3880 -71.3874 -71.3854 -71.3840 -71.3838 -71.3773 -71.3766 -71.3747
   -71.3729 -71.3720 -71.3716 -71.3705 -71.3702 -71.3695 -71.3649 -71.3640
   -71.3638 -71.3623 -71.3610 -71.3605 -71.3603 -71.3600 -71.3591 -71.3520
   -71.3519 -71.3440 -71.3331 -71.3273 -71.3232 -71.3221 -71.3217 -71.3192
   -71.3149 -71.3097 -71.3075 -71.3071 -71.3059 -71.3055 -71.3049 -71.3039
   -71.2969 -71.2923 -71.2910 -71.2899 -71.2888 -71.2879 -71.2871 -71.2867
   -71.2859 -71.2846 -71.2831 -71.2824 -71.2817 -71.2809 -71.2801 -71.2782
   -24.9654 -24.5277 -22.6114 -22.1318 -17.6358 -15.4308 -13.7202 -12.7930
   -10.8287  -9.6931  -9.5099  -9.4345  -9.0708  -8.6267  -8.3311  -7.8810
    -7.8651  -7.8617  -7.8601  -7.8591  -7.8579  -7.7928  -7.4297  -7.0288
    -6.9302  -6.8687  -6.4720  -5.9947  -5.9930  -5.9882  -5.9679  -5.9661
    -5.9640  -5.8840  -5.8270  -5.8269  -5.8254  -5.8251  -5.8249  -5.8224
[...]
               a(3) = (   0.000000   0.000000  29.910570 )

     reciprocal axes: (cart. coord. in units 2 pi/alat)
               b(1) = (  0.097804  0.056467  0.000000 )
               b(2) = (  0.000000  0.112935  0.000000 )
               b(3) = (  0.000000  0.000000  0.033433 )

     PseudoPot. # 1 for Cu read from file:
     /gpfs/pace1/project/chbe-medford/medford-share/data/pseudos/SSSP_eff_PBE/Cu.UPF
     MD5 check sum: 6e991ff952a84172a2a52a1c1e996048
     Pseudo is Ultrasoft + core correction, Zval = 19.0
     Generated by new atomic code, or converted to UPF format
     Using radial grid of  867 points,  6 beta functions with:
                l(1) =   0
                l(2) =   0
                l(3) =   1
                l(4) =   1
                l(5) =   2
                l(6) =   2
     Q(r) pseudized with  8 coefficients,  rinner =    1.150   1.150   1.150
                                                       1.150   1.150

     PseudoPot. # 2 for O  read from file:
     /gpfs/pace1/project/chbe-medford/medford-share/data/pseudos/SSSP_eff_PBE/O.UPF
     MD5 check sum: 734c27235a0248c51dbae37a1fbe46ec
     Pseudo is Ultrasoft + core correction, Zval =  6.0
     Generated by new atomic code, or converted to UPF format
     Using radial grid of  737 points,  5 beta functions with:
                l(1) =   0
                l(2) =   0
                l(3) =   1
                l(4) =   1
                l(5) =   2
     Q(r) pseudized with  8 coefficients,  rinner =    0.900   0.900   0.900
                                                       0.900   0.900

     PseudoPot. # 3 for C  read from file:
     /gpfs/pace1/project/chbe-medford/medford-share/data/pseudos/SSSP_eff_PBE/C.UPF
     MD5 check sum: d1aef80898a10debaa0f26306b886e00
     Pseudo is Ultrasoft + core correction, Zval =  4.0
     Generated by new atomic code, or converted to UPF format
     Using radial grid of  721 points,  4 beta functions with:
                l(1) =   0
                l(2) =   0
                l(3) =   1
                l(4) =   1
     Q(r) pseudized with  8 coefficients,  rinner =    1.100   1.100   1.100

     PseudoPot. # 4 for  H read from file:
     /gpfs/pace1/project/chbe-medford/medford-share/data/pseudos/SSSP_eff_PBE/H.UPF
     MD5 check sum: 36633979392af7100e6f6632747262d3
     Pseudo is Ultrasoft, Zval =  1.0
     Generated using "atomic" code by A. Dal Corso  v.5.0.99 svn rev. 10869
     Using radial grid of  929 points,  2 beta functions with:
                l(1) =   0
                l(2) =   0
     Q(r) pseudized with 0 coefficients

     atomic species   valence    mass     pseudopotential
        Cu1           19.00    63.54600     Cu( 1.00)
        O1             6.00    15.99940     O ( 1.00)
        C1             4.00    12.01100     C ( 1.00)
        H1             1.00     1.00794      H( 1.00)

     No symmetry found

   Cartesian axes

     site n.     atom                  positions (alat units)
         1           Cu1 tau(   1) = (   0.0000000   0.0000000  10.0000000  )
         2           Cu1 tau(   2) = (   1.2780602   0.7378884  12.0870635  )
         3           Cu1 tau(   3) = (  -1.2780602   2.2136651  10.0000000  )
         4           Cu1 tau(   4) = (   0.0000000   2.9515535  12.0870635  )
         5           Cu1 tau(   5) = (  -2.5561203   4.4273302  10.0000000  )
         6           Cu1 tau(   6) = (  -1.2780602   5.1652186  12.0870635  )
         7           Cu1 tau(   7) = (  -3.8341805   6.6409954  10.0000000  )
         8           Cu1 tau(   8) = (  -2.5561203   7.3788837  12.0870635  )
         9           Cu1 tau(   9) = (   2.5561203   0.0000000  10.0000000  )
        10           Cu1 tau(  10) = (   3.8341805   0.7378884  12.0870635  )
        11           Cu1 tau(  11) = (   1.2780602   2.2136651  10.0000000  )
        12           Cu1 tau(  12) = (   2.5561203   2.9515535  12.0870635  )
        13           Cu1 tau(  13) = (   0.0000000   4.4273302  10.0000000  )
        14           Cu1 tau(  14) = (   1.2780602   5.1652186  12.0870635  )
        15           Cu1 tau(  15) = (  -1.2780602   6.6409954  10.0000000  )
        16           Cu1 tau(  16) = (   0.0000000   7.3788837  12.0870635  )
        17           Cu1 tau(  17) = (   5.1122406   0.0000000  10.0000000  )
        18           Cu1 tau(  18) = (   6.3903008   0.7378884  12.0870635  )
        19           Cu1 tau(  19) = (   3.8341805   2.2136651  10.0000000  )
        20           Cu1 tau(  20) = (   5.1122406   2.9515535  12.0870635  )
        21           Cu1 tau(  21) = (   2.5561203   4.4273302  10.0000000  )
        22           Cu1 tau(  22) = (   3.8341805   5.1652186  12.0870635  )
        23           Cu1 tau(  23) = (   1.2780602   6.6409954  10.0000000  )
        24           Cu1 tau(  24) = (   2.5561203   7.3788837  12.0870635  )
        25           Cu1 tau(  25) = (   7.6683609   0.0000000  10.0000000  )
        26           Cu1 tau(  26) = (   8.9464211   0.7378884  12.0870635  )
        27           Cu1 tau(  27) = (   6.3903008   2.2136651  10.0000000  )
        28           Cu1 tau(  28) = (   7.6683609   2.9515535  12.0870635  )
        29           Cu1 tau(  29) = (   5.1122406   4.4273302  10.0000000  )
        30           Cu1 tau(  30) = (   6.3903008   5.1652186  12.0870635  )
        31           Cu1 tau(  31) = (   3.8341805   6.6409954  10.0000000  )
        32           Cu1 tau(  32) = (   5.1122406   7.3788837  12.0870635  )
        33           O1  tau(  33) = (   1.2780000   5.1650000  14.5870635  )
        34           O1  tau(  34) = (   3.2910351   6.4445000  18.1623425  )
        35           O1  tau(  35) = (   0.4572300   4.8121000  16.6792481  )
        36           O1  tau(  36) = (   3.3572155   4.9979000  19.9105704  )
        37           C1  tau(  37) = (   2.8466743   4.5481000  16.2258871  )
        38           C1  tau(  38) = (   3.0142348   4.1726000  17.6717104  )
        39           C1  tau(  39) = (   1.3984576   4.8387000  15.9005021  )
        40           C1  tau(  40) = (   3.2360857   5.2096000  18.7135673  )
        41           C1  tau(  41) = (   2.9421491   2.8998000  18.0904543  )
        42           H1  tau(  42) = (   3.4602465   5.4163000  15.9648253  )
        43           H1  tau(  43) = (   3.1707627   3.7170000  15.5868247  )
        44           H1  tau(  44) = (   2.7680862   2.0932000  17.3849686  )
        45           H1  tau(  45) = (   3.0505197   2.6176000  19.1323576  )
        46           H1  tau(  46) = (   0.3495546   5.3687000  14.3449490  )
        47           H1  tau(  47) = (   3.4379563   7.1417000  18.8366176  )

     number of k points=    10  Fermi-Dirac smearing, width (Ry)=  0.0073
                       cart. coord. in units 2pi/alat
        k(    1) = (   0.0000000   0.0000000   0.0000000), wk =   0.1250000
        k(    2) = (   0.0000000   0.0282337   0.0000000), wk =   0.2500000
        k(    3) = (   0.0000000  -0.0564674   0.0000000), wk =   0.1250000
        k(    4) = (   0.0244511   0.0423506   0.0000000), wk =   0.2500000
        k(    5) = (  -0.0244511   0.0141169   0.0000000), wk =   0.2500000
        k(    6) = (   0.0244511   0.0141169   0.0000000), wk =   0.2500000
        k(    7) = (   0.0489022  -0.0282337   0.0000000), wk =   0.1250000
        k(    8) = (  -0.0489022  -0.0282337   0.0000000), wk =   0.1250000
        k(    9) = (  -0.0244511   0.0423506   0.0000000), wk =   0.2500000
        k(   10) = (   0.0489022  -0.0000000   0.0000000), wk =   0.2500000

     Largest allocated arrays     est. size (Mb)     dimensions
     Largest temporary arrays     est. size (Mb)     dimensions

     Initial potential from superposition of free atoms
     Check: negative starting charge=   -0.010029

     starting charge  625.99967, renormalised to  658.00000

     negative rho (up, down):  1.054E-02 0.000E+00
     Starting wfc are  458 randomized atomic wfcs

[...]

     iteration # 40     ecut=    40.42 Ry     beta=0.07
     Davidson diagonalization with overlap
     c_bands:  1 eigenvalues not converged
     ethr =  2.06E-06,  avg # of iterations =  6.1

[...]

     Total force =     0.007893     Total SCF correction =     0.000749
 !ASE

     Writing output data file calc.save
     Check: negative starting charge=   -0.009936
     NEW-OLD atomic charge density approx. for the potential
     Check: negative starting charge=   -0.009936

[...]

     Self-consistent Calculation

[...]

     total energy              =  -13113.61914843 Ry
     Harris-Foulkes estimate   =  -13113.61914823 Ry
     estimated scf accuracy    <       0.00000063 Ry

     iteration # 11     ecut=    40.42 Ry     beta=0.07
     Davidson diagonalization with overlap
     ethr =  9.53E-11,  avg # of iterations =  2.0

     negative rho (up, down):  4.726E-03 0.000E+00

     End of self-consistent calculation

[...]

          k =-0.0245 0.0424 0.0000 ( 79268 PWs)   bands (ev):

[...]

          k = 0.0489-0.0000 0.0000 ( 79268 PWs)   bands (ev):

  -113.9452-113.9430-113.9417-113.9402-113.9390-113.9375-113.9368-113.9365
  -113.9354-113.9351-113.9347-113.9343-113.9340-113.9336-113.9332-113.9327
  -113.9323-113.9320-113.9316-113.9312-113.9309-113.9305-113.9302-113.9300
  -113.9297-113.9296-113.9294-113.9289-113.9287-113.9282-113.9276-113.9265
   -71.4077 -71.4043 -71.4039 -71.4022 -71.4018 -71.3997 -71.3974 -71.3967
   -71.3960 -71.3958 -71.3947 -71.3944 -71.3930 -71.3922 -71.3910 -71.3904
   -71.3900 -71.3860 -71.3852 -71.3847 -71.3811 -71.3800 -71.3786 -71.3720
   -71.3716 -71.3706 -71.3674 -71.3673 -71.3656 -71.3654 -71.3582 -71.3545
   -71.3544 -71.3536 -71.3529 -71.3509 -71.3504 -71.3490 -71.3479 -71.3477
   -71.3471 -71.3465 -71.3458 -71.3430 -71.3424 -71.3419 -71.3416 -71.3413
   -71.3412 -71.3398 -71.3382 -71.3381 -71.3368 -71.3354 -71.3351 -71.3337
   -71.3331 -71.3325 -71.3323 -71.3309 -71.3279 -71.3241 -71.3239 -71.3210
   -71.3005 -71.2970 -71.2959 -71.2884 -71.2879 -71.2832 -71.2823 -71.2808
   -71.2781 -71.2775 -71.2768 -71.2755 -71.2718 -71.2700 -71.2691 -71.2654
   -71.2606 -71.2581 -71.2574 -71.2563 -71.2548 -71.2542 -71.2527 -71.2524
   -71.2519 -71.2515 -71.2509 -71.2496 -71.2494 -71.2486 -71.2479 -71.2460
   -24.7854 -24.5373 -22.4828 -22.2182 -17.5771 -15.2886 -13.5230 -12.3034
   -10.6208  -9.3480  -9.2953  -9.2023  -8.9663  -8.8201  -8.8160  -8.6424
    -8.2788  -7.7898  -7.5393  -7.5386  -7.3592  -7.0436  -6.8482  -6.7777
    -6.6741  -6.6729  -6.6543  -6.4097  -6.2817  -6.2776  -6.2421  -6.2417
    -6.2220  -6.2215  -5.9425  -5.7701  -5.7516  -5.6954  -5.6952  -5.6502
    -5.6498  -5.5752  -5.5750  -5.4903  -5.4900  -5.4824  -5.4813  -5.4552
    -5.4546  -5.4002  -5.3933  -5.3770  -5.3768  -5.2800  -5.2798  -5.2636
    -5.2633  -5.2379  -5.2374  -5.1735  -5.1493  -5.1239  -5.0467  -4.9558
    -4.9371  -4.9196  -4.8457  -4.7958  -4.7922  -4.7512  -4.6422  -4.6418
    -4.6188  -4.5970  -4.5958  -4.5950  -4.5937  -4.5906  -4.5806  -4.5790
    -4.5492  -4.5474  -4.5458  -4.5364  -4.5355  -4.5272  -4.5268  -4.5149
    -4.4711  -4.4703  -4.4526  -4.4363  -4.4255  -4.3898  -4.3542  -4.3538
    -4.3467  -4.3409  -4.3156  -4.3140  -4.2469  -4.2435  -4.2428  -4.2195
    -4.1882  -4.1878  -4.1853  -4.1846  -4.1839  -4.1280  -4.1271  -4.0890
    -4.0889  -4.0847  -4.0844  -4.0825  -4.0822  -4.0574  -4.0572  -4.0485
    -4.0231  -4.0219  -4.0190  -4.0187  -3.9893  -3.9886  -3.9669  -3.9654
    -3.9475  -3.9240  -3.9218  -3.9015  -3.8891  -3.8877  -3.8584  -3.7799
    -3.7774  -3.7418  -3.6847  -3.6789  -3.6696  -3.6673  -3.6644  -3.6137
    -3.6076  -3.5900  -3.5887  -3.5849  -3.5769  -3.5725  -3.5676  -3.5432
    -3.5272  -3.5226  -3.4993  -3.4988  -3.4795  -3.4741  -3.4092  -3.4054
    -3.4048  -3.3922  -3.3918  -3.3833  -3.3602  -3.3599  -3.3596  -3.3595
    -3.3591  -3.3419  -3.3413  -3.3052  -3.3050  -3.3017  -3.3011  -3.2786
    -3.2726  -3.2617  -3.2583  -3.2562  -3.2185  -3.2181  -3.2092  -3.2012
    -3.2011  -3.1864  -3.1545  -3.1541  -3.1344  -3.1173  -3.1168  -3.0681
    -3.0674  -2.9560  -2.8632  -2.8480  -2.4243  -2.4239  -2.3736  -2.3727
    -2.0013  -1.9900  -1.2635  -1.0733  -1.0687  -0.8625  -0.3843  -0.1903
    -0.1871  -0.1437  -0.1286

     the Fermi energy is    -1.6885 ev

!    total energy              =  -13113.61915036 Ry
     Harris-Foulkes estimate   =  -13113.61914847 Ry
     estimated scf accuracy    <       0.00000018 Ry

     The total energy is the sum of the following terms:

     one-electron contribution = -113458.50713532 Ry
     hartree contribution      =   56718.53776308 Ry
     xc contribution           =   -1291.75927786 Ry
     ewald contribution        =   44918.12769633 Ry
     smearing contrib. (-TS)   =      -0.01819660 Ry

     convergence has been achieved in  11 iterations

     Forces acting on atoms (Ry/au):

     negative rho (up, down):  4.726E-03 0.000E+00
     atom    1 type  1   force =    -0.00008197   -0.00003161   -0.00076257
     atom    2 type  1   force =     0.00009675    0.00003525    0.00097751
     atom    3 type  1   force =     0.00000744    0.00003657   -0.00088698
     atom    4 type  1   force =    -0.00002331   -0.00031548    0.00053021
     atom    5 type  1   force =     0.00007312   -0.00007701   -0.00097589
     atom    6 type  1   force =    -0.00060107    0.00020607   -0.00000964
     atom    7 type  1   force =    -0.00008951    0.00002190   -0.00081047
     atom    8 type  1   force =     0.00024927   -0.00010825    0.00116902
     atom    9 type  1   force =    -0.00004589   -0.00002827   -0.00080842
     atom   10 type  1   force =    -0.00000784    0.00001603    0.00109740
     atom   11 type  1   force =    -0.00005560    0.00009808   -0.00091726
     atom   12 type  1   force =     0.00021695   -0.00031816    0.00042115
     atom   13 type  1   force =     0.00009473    0.00007658   -0.00064535
     atom   14 type  1   force =    -0.00000371   -0.00021883    0.00231812
     atom   15 type  1   force =     0.00015962   -0.00007040   -0.00106246
     atom   16 type  1   force =    -0.00084016    0.00077445   -0.00057317
     atom   17 type  1   force =     0.00020672   -0.00011702   -0.00095273
     atom   18 type  1   force =    -0.00010754   -0.00001789    0.00082376
     atom   19 type  1   force =    -0.00002729    0.00011113   -0.00097488
     atom   20 type  1   force =    -0.00017097    0.00004818    0.00099512
     atom   21 type  1   force =    -0.00007940    0.00016681   -0.00049394
     atom   22 type  1   force =     0.00055151   -0.00016639    0.00020420
     atom   23 type  1   force =     0.00006992   -0.00003397   -0.00049044
     atom   24 type  1   force =     0.00045937    0.00049505    0.00046007
     atom   25 type  1   force =    -0.00007628   -0.00011289   -0.00078641
     atom   26 type  1   force =     0.00002426   -0.00001517    0.00082408
     atom   27 type  1   force =     0.00007408   -0.00002704   -0.00066408
     atom   28 type  1   force =    -0.00001420    0.00004136    0.00094475
     atom   29 type  1   force =    -0.00008779    0.00004788   -0.00091884
     atom   30 type  1   force =    -0.00006982    0.00004158    0.00103567
     atom   31 type  1   force =    -0.00013085   -0.00003186   -0.00070424
     atom   32 type  1   force =     0.00004426   -0.00007949    0.00088956
     atom   33 type  2   force =     0.00017493    0.00040915   -0.00099566
     atom   34 type  2   force =    -0.00018827   -0.00005425    0.00086413
     atom   35 type  2   force =     0.00048329    0.00032479    0.00007660
     atom   36 type  2   force =     0.00155819   -0.00064699    0.00065054
     atom   37 type  3   force =    -0.00071675    0.00075046   -0.00013102
     atom   38 type  3   force =     0.00152023   -0.00067036   -0.00020109
     atom   39 type  3   force =    -0.00017322   -0.00010735    0.00063361
     atom   40 type  3   force =    -0.00153714   -0.00000565   -0.00027663
     atom   41 type  3   force =    -0.00032303    0.00089850   -0.00013729
     atom   42 type  4   force =    -0.00050073   -0.00117477    0.00022694
     atom   43 type  4   force =    -0.00002817    0.00008035    0.00000495
     atom   44 type  4   force =     0.00016442   -0.00014058    0.00003684
     atom   45 type  4   force =     0.00038646   -0.00009739    0.00055358
     atom   46 type  4   force =    -0.00035633   -0.00005989   -0.00073647
     atom   47 type  4   force =    -0.00027866    0.00004675    0.00017812

     Total force =     0.006729     Total SCF correction =     0.001064
     SCF correction compared to forces is large: reduce conv_thr to get better values
 !ASE

     Writing output data file calc.save

     General routines

     Parallel routines

   This run was terminated on:  18:40: 7   7Apr2019

   JOB DONE.