     Program PWSCF v.5.1rc2 starts on  9Feb2019 at 22:50:34

     Current dimensions of program PWSCF are:
     Max number of different atomic species (ntypx) = 10
     Max number of k-points (npk) =  40000
     Max angular momentum in pseudopotentials (lmaxx) =  3

     IMPORTANT: XC functional enforced from input :
     Exchange-correlation      = PBE ( 1  4  3  4 0)
     Any further DFT definition will be discarded
     Please, verify this is what you really want

     Subspace diagonalization in iterative solution of the eigenvalue problem:
     a serial algorithm will be used

     bravais-lattice index     =            0
     lattice parameter (alat)  =       1.8897  a.u.
     unit-cell volume          =   10059.5283 (a.u.)^3
     number of atoms/cell      =           47
     number of atomic types    =            4
     number of electrons       =       562.00
     number of Kohn-Sham states=          291
     kinetic-energy cutoff     =      40.4243  Ry
     charge density cutoff     =     330.7439  Ry
     convergence threshold     =      7.3E-07
     mixing beta               =       0.2000
     number of iterations used =            8  local-TF  mixing
     Exchange-correlation      = PBE ( 1  4  3  4 0)
     nstep                     =           50

     celldm(1)=   1.889726  celldm(2)=   0.000000  celldm(3)=   0.000000
     celldm(4)=   0.000000  celldm(5)=   0.000000  celldm(6)=   0.000000

     crystal axes: (cart. coord. in units of alat)
               a(1) = (   7.653441   0.000000   0.000000 )
               a(2) = (  -3.826720   6.628074   0.000000 )
               a(3) = (   0.000000   0.000000  29.385759 )

     reciprocal axes: (cart. coord. in units 2 pi/alat)
               b(1) = (  0.130660  0.075437  0.000000 )
               b(2) = (  0.000000  0.150873  0.000000 )
               b(3) = (  0.000000  0.000000  0.034030 )

     PseudoPot. # 1 for Ru read from file:
     /gpfs/pace1/project/chbe-medford/medford-share/data/pseudos/SSSP_eff_PBE/Ru.UPF
     MD5 check sum: ee8b12a60222127e4502f4351c316942
     Pseudo is Norm-conserving, Zval = 16.0
     Generated using ONCVPSP code by D. R. Hamann
     Using radial grid of  602 points,  6 beta functions with:
                l(1) =   0
                l(2) =   0
                l(3) =   1
                l(4) =   1
                l(5) =   2
                l(6) =   2

     PseudoPot. # 2 for O  read from file:
     /gpfs/pace1/project/chbe-medford/medford-share/data/pseudos/SSSP_eff_PBE/O.UPF
     MD5 check sum: 734c27235a0248c51dbae37a1fbe46ec
     Pseudo is Ultrasoft + core correction, Zval =  6.0
     Generated by new atomic code, or converted to UPF format
     Using radial grid of  737 points,  5 beta functions with:
                l(1) =   0
                l(2) =   0
                l(3) =   1
                l(4) =   1
                l(5) =   2
     Q(r) pseudized with  8 coefficients,  rinner =    0.900   0.900   0.900
                                                       0.900   0.900

     PseudoPot. # 3 for C  read from file:
     /gpfs/pace1/project/chbe-medford/medford-share/data/pseudos/SSSP_eff_PBE/C.UPF
     MD5 check sum: d1aef80898a10debaa0f26306b886e00
     Pseudo is Ultrasoft + core correction, Zval =  4.0
     Generated by new atomic code, or converted to UPF format
     Using radial grid of  721 points,  4 beta functions with:
                l(1) =   0
                l(2) =   0
                l(3) =   1
                l(4) =   1
     Q(r) pseudized with  8 coefficients,  rinner =    1.100   1.100   1.100

     PseudoPot. # 4 for  H read from file:
     /gpfs/pace1/project/chbe-medford/medford-share/data/pseudos/SSSP_eff_PBE/H.UPF
     MD5 check sum: 36633979392af7100e6f6632747262d3
     Pseudo is Ultrasoft, Zval =  1.0
     Generated using "atomic" code by A. Dal Corso  v.5.0.99 svn rev. 10869
     Using radial grid of  929 points,  2 beta functions with:
                l(1) =   0
                l(2) =   0
     Q(r) pseudized with 0 coefficients

     atomic species   valence    mass     pseudopotential
        Ru1           16.00   101.07000     Ru( 1.00)
        O1             6.00    15.99940     O ( 1.00)
        C1             4.00    12.01100     C ( 1.00)
        H1             1.00     1.00794      H( 1.00)

     No symmetry found

   Cartesian axes

     site n.     atom                  positions (alat units)
         1           Ru1 tau(   1) = (   0.0000000   0.0000000  10.0000000  )
         2           Ru1 tau(   2) = (   0.9566801   0.5523395  11.5622521  )
         3           Ru1 tau(   3) = (  -0.9566801   1.6570186  10.0000000  )
         4           Ru1 tau(   4) = (   0.0000000   2.2093581  11.5622521  )
         5           Ru1 tau(   5) = (  -1.9133602   3.3140371  10.0000000  )
         6           Ru1 tau(   6) = (  -0.9566801   3.8663767  11.5622521  )
         7           Ru1 tau(   7) = (  -2.8700404   4.9710557  10.0000000  )
         8           Ru1 tau(   8) = (  -1.9133602   5.5233952  11.5622521  )
         9           Ru1 tau(   9) = (   1.9133602   0.0000000  10.0000000  )
        10           Ru1 tau(  10) = (   2.8700404   0.5523395  11.5622521  )
        11           Ru1 tau(  11) = (   0.9566801   1.6570186  10.0000000  )
        12           Ru1 tau(  12) = (   1.9133602   2.2093581  11.5622521  )
        13           Ru1 tau(  13) = (   0.0000000   3.3140371  10.0000000  )
        14           Ru1 tau(  14) = (   0.9566801   3.8663767  11.5622521  )
        15           Ru1 tau(  15) = (  -0.9566801   4.9710557  10.0000000  )
        16           Ru1 tau(  16) = (   0.0000000   5.5233952  11.5622521  )
        17           Ru1 tau(  17) = (   3.8267205   0.0000000  10.0000000  )
        18           Ru1 tau(  18) = (   4.7834006   0.5523395  11.5622521  )
        19           Ru1 tau(  19) = (   2.8700404   1.6570186  10.0000000  )
        20           Ru1 tau(  20) = (   3.8267205   2.2093581  11.5622521  )
        21           Ru1 tau(  21) = (   1.9133602   3.3140371  10.0000000  )
        22           Ru1 tau(  22) = (   2.8700404   3.8663767  11.5622521  )
        23           Ru1 tau(  23) = (   0.9566801   4.9710557  10.0000000  )
        24           Ru1 tau(  24) = (   1.9133602   5.5233952  11.5622521  )
        25           Ru1 tau(  25) = (   5.7400807   0.0000000  10.0000000  )
        26           Ru1 tau(  26) = (   6.6967608   0.5523395  11.5622521  )
        27           Ru1 tau(  27) = (   4.7834006   1.6570186  10.0000000  )
        28           Ru1 tau(  28) = (   5.7400807   2.2093581  11.5622521  )
        29           Ru1 tau(  29) = (   3.8267205   3.3140371  10.0000000  )
        30           Ru1 tau(  30) = (   4.7834006   3.8663767  11.5622521  )
        31           Ru1 tau(  31) = (   2.8700404   4.9710557  10.0000000  )
        32           Ru1 tau(  32) = (   3.8267205   5.5233952  11.5622521  )
        33           O1  tau(  33) = (   0.9570000   3.8660000  14.0622521  )
        34           O1  tau(  34) = (   2.9700351   5.1455000  17.6375311  )
        35           O1  tau(  35) = (   0.1362300   3.5131000  16.1544367  )
        36           O1  tau(  36) = (   3.0362155   3.6989000  19.3857590  )
        37           C1  tau(  37) = (   2.5256743   3.2491000  15.7010757  )
        38           C1  tau(  38) = (   2.6932348   2.8736000  17.1468990  )
        39           C1  tau(  39) = (   1.0774576   3.5397000  15.3756907  )
        40           C1  tau(  40) = (   2.9150857   3.9106000  18.1887559  )
        41           C1  tau(  41) = (   2.6211491   1.6008000  17.5656429  )
        42           H1  tau(  42) = (   3.1392465   4.1173000  15.4400139  )
        43           H1  tau(  43) = (   2.8497627   2.4180000  15.0620133  )
        44           H1  tau(  44) = (   2.4470862   0.7942000  16.8601572  )
        45           H1  tau(  45) = (   2.7295197   1.3186000  18.6075462  )
        46           H1  tau(  46) = (   0.0285546   4.0697000  13.8201376  )
        47           H1  tau(  47) = (   3.1169563   5.8427000  18.3118062  )

     number of k points=     4  Fermi-Dirac smearing, width (Ry)=  0.0073
                       cart. coord. in units 2pi/alat
        k(    1) = (   0.0000000   0.0000000   0.0000000), wk =   0.5000000
        k(    2) = (   0.0000000  -0.0754367   0.0000000), wk =   0.5000000
        k(    3) = (   0.0653301  -0.0377183   0.0000000), wk =   0.5000000
        k(    4) = (  -0.0653301  -0.0377183   0.0000000), wk =   0.5000000

     Largest allocated arrays     est. size (Mb)     dimensions
     Largest temporary arrays     est. size (Mb)     dimensions

     Initial potential from superposition of free atoms
     Check: negative starting charge=   -0.002292

     starting charge  560.04311, renormalised to  562.00000

     negative rho (up, down):  2.300E-03 0.000E+00
     Starting wfc are   42 randomized atomic wfcs +  249 random wfc

     Self-consistent Calculation

     iteration #  1     ecut=    40.42 Ry     beta=0.20
     Davidson diagonalization with overlap
     ethr =  1.00E-02,  avg # of iterations = 14.5

     negative rho (up, down):  9.479E-07 0.000E+00

     total energy              =   -6181.46583171 Ry
     Harris-Foulkes estimate   =   -6184.51607593 Ry
     estimated scf accuracy    <     135.08041322 Ry

[...]

     End of self-consistent calculation

          k = 0.0000 0.0000 0.0000 ( 43691 PWs)   bands (ev):

   -76.5035 -74.5582 -74.5543 -74.5531 -74.5518 -74.5498 -74.5479 -73.3503
   -71.8525 -71.8465 -71.8444 -71.8436 -71.8417 -71.8396 -71.7380 -71.7307
   -71.7304 -71.7296 -71.7273 -71.7265 -71.5702 -71.5655 -71.5622 -70.3832
   -70.3781 -70.3748 -70.3004 -70.2909 -70.2908 -70.2896 -70.2876 -70.2867
   -50.6113 -50.6108 -50.6086 -49.3024 -49.3019 -49.3000 -48.1180 -48.1163
   -48.1157 -48.1150 -48.1135 -48.1135 -48.0810 -48.0800 -48.0770 -48.0768
   -48.0761 -48.0754 -47.6815 -46.3207 -46.3110 -46.3093 -46.3088 -46.3066
   -46.3048 -45.0816 -45.0801 -45.0791 -45.0775 -45.0765 -45.0759 -44.9222
   -44.9211 -44.9202 -44.9192 -44.9176 -44.9164 -42.9127 -42.9104 -42.9093
   -42.9086 -42.9070 -42.9063 -42.5171 -42.5156 -42.5145 -42.5125 -42.5111
   -42.5104 -42.3980 -42.3918 -42.3877 -41.7974 -41.7903 -41.7889 -41.7888
   -41.7869 -41.7860 -41.3153 -41.3137 -41.3127 -40.0061 -39.9986 -39.9947
   -39.8166 -39.8104 -39.8096 -39.8084 -39.8072 -39.8056 -39.8046 -39.4003
   -39.3861 -39.3857 -39.3841 -39.3830 -39.3809 -39.1829 -39.1762 -39.1745
   -39.1733 -39.1715 -39.1701 -39.1693 -39.1672 -39.1651 -37.9871 -37.9861
   -37.9844 -37.9830 -37.9814 -37.9803 -37.8351 -37.8350 -36.7241 -36.7240
   -19.8075 -19.0194 -17.3737 -16.6203 -15.1109 -15.1104 -15.1098 -12.2128
   -12.1766 -12.1758 -12.1724 -11.8897 -11.8884 -11.8878 -11.8865 -11.8860
   -11.8850 -10.6703 -10.6688 -10.6672 -10.6079 -10.5981 -10.5971 -10.5955
   -10.5934 -10.5920 -10.1061  -9.8648  -9.0796  -9.0660  -9.0648  -9.0604
    -9.0595  -9.0586  -8.5098  -8.4859  -8.4837  -8.4773  -8.4747  -8.4725
    -8.2489  -7.6391  -6.8236  -6.8226  -6.8110  -6.2517  -6.1450  -6.1388
    -6.1297  -6.1278  -6.1269  -6.1073  -6.0511  -6.0486  -6.0483  -6.0476
[...]

     bravais-lattice index     =            0
     lattice parameter (alat)  =       1.8897  a.u.
     unit-cell volume          =   10059.5283 (a.u.)^3
     number of atoms/cell      =           47
     number of atomic types    =            4
     number of electrons       =       562.00
     number of Kohn-Sham states=          291
     kinetic-energy cutoff     =      40.4243  Ry
     charge density cutoff     =     330.7439  Ry
     convergence threshold     =      3.7E-07
     mixing beta               =       0.0750
     number of iterations used =            8  local-TF  mixing
     Exchange-correlation      = PBE ( 1  4  3  4 0)
     nstep                     =           50

     celldm(1)=   1.889726  celldm(2)=   0.000000  celldm(3)=   0.000000
     celldm(4)=   0.000000  celldm(5)=   0.000000  celldm(6)=   0.000000

     crystal axes: (cart. coord. in units of alat)
               a(1) = (   7.653441   0.000000   0.000000 )
               a(2) = (  -3.826720   6.628074   0.000000 )
               a(3) = (   0.000000   0.000000  29.385759 )

     reciprocal axes: (cart. coord. in units 2 pi/alat)
               b(1) = (  0.130660  0.075437  0.000000 )
               b(2) = (  0.000000  0.150873  0.000000 )
               b(3) = (  0.000000  0.000000  0.034030 )

     PseudoPot. # 1 for Ru read from file:
     /gpfs/pace1/project/chbe-medford/medford-share/data/pseudos/SSSP_eff_PBE/Ru.UPF
     MD5 check sum: ee8b12a60222127e4502f4351c316942
     Pseudo is Norm-conserving, Zval = 16.0
     Generated using ONCVPSP code by D. R. Hamann
     Using radial grid of  602 points,  6 beta functions with:
                l(1) =   0
                l(2) =   0
                l(3) =   1
                l(4) =   1
                l(5) =   2
                l(6) =   2

     PseudoPot. # 2 for O  read from file:
     /gpfs/pace1/project/chbe-medford/medford-share/data/pseudos/SSSP_eff_PBE/O.UPF
     MD5 check sum: 734c27235a0248c51dbae37a1fbe46ec
     Pseudo is Ultrasoft + core correction, Zval =  6.0
     Generated by new atomic code, or converted to UPF format
     Using radial grid of  737 points,  5 beta functions with:
                l(1) =   0
                l(2) =   0
                l(3) =   1
                l(4) =   1
                l(5) =   2
     Q(r) pseudized with  8 coefficients,  rinner =    0.900   0.900   0.900
                                                       0.900   0.900

     PseudoPot. # 3 for C  read from file:
     /gpfs/pace1/project/chbe-medford/medford-share/data/pseudos/SSSP_eff_PBE/C.UPF
     MD5 check sum: d1aef80898a10debaa0f26306b886e00
     Pseudo is Ultrasoft + core correction, Zval =  4.0
     Generated by new atomic code, or converted to UPF format
     Using radial grid of  721 points,  4 beta functions with:
                l(1) =   0
                l(2) =   0
                l(3) =   1
                l(4) =   1
     Q(r) pseudized with  8 coefficients,  rinner =    1.100   1.100   1.100

     PseudoPot. # 4 for  H read from file:
     /gpfs/pace1/project/chbe-medford/medford-share/data/pseudos/SSSP_eff_PBE/H.UPF
     MD5 check sum: 36633979392af7100e6f6632747262d3
     Pseudo is Ultrasoft, Zval =  1.0
     Generated using "atomic" code by A. Dal Corso  v.5.0.99 svn rev. 10869
     Using radial grid of  929 points,  2 beta functions with:
                l(1) =   0
                l(2) =   0
     Q(r) pseudized with 0 coefficients

     atomic species   valence    mass     pseudopotential
        Ru1           16.00   101.07000     Ru( 1.00)
        O1             6.00    15.99940     O ( 1.00)
        C1             4.00    12.01100     C ( 1.00)
        H1             1.00     1.00794      H( 1.00)

     No symmetry found

   Cartesian axes

     site n.     atom                  positions (alat units)
         1           Ru1 tau(   1) = (   0.0000000   0.0000000  10.0000000  )
         2           Ru1 tau(   2) = (   0.9566801   0.5523395  11.5622521  )
         3           Ru1 tau(   3) = (  -0.9566801   1.6570186  10.0000000  )
         4           Ru1 tau(   4) = (   0.0000000   2.2093581  11.5622521  )
         5           Ru1 tau(   5) = (  -1.9133602   3.3140371  10.0000000  )
         6           Ru1 tau(   6) = (  -0.9566801   3.8663767  11.5622521  )
         7           Ru1 tau(   7) = (  -2.8700404   4.9710557  10.0000000  )
         8           Ru1 tau(   8) = (  -1.9133602   5.5233952  11.5622521  )
         9           Ru1 tau(   9) = (   1.9133602   0.0000000  10.0000000  )
        10           Ru1 tau(  10) = (   2.8700404   0.5523395  11.5622521  )
        11           Ru1 tau(  11) = (   0.9566801   1.6570186  10.0000000  )
        12           Ru1 tau(  12) = (   1.9133602   2.2093581  11.5622521  )
        13           Ru1 tau(  13) = (   0.0000000   3.3140371  10.0000000  )
        14           Ru1 tau(  14) = (   0.9566801   3.8663767  11.5622521  )
        15           Ru1 tau(  15) = (  -0.9566801   4.9710557  10.0000000  )
        16           Ru1 tau(  16) = (   0.0000000   5.5233952  11.5622521  )
        17           Ru1 tau(  17) = (   3.8267205   0.0000000  10.0000000  )
        18           Ru1 tau(  18) = (   4.7834006   0.5523395  11.5622521  )
        19           Ru1 tau(  19) = (   2.8700404   1.6570186  10.0000000  )
        20           Ru1 tau(  20) = (   3.8267205   2.2093581  11.5622521  )
        21           Ru1 tau(  21) = (   1.9133602   3.3140371  10.0000000  )
        22           Ru1 tau(  22) = (   2.8700404   3.8663767  11.5622521  )
        23           Ru1 tau(  23) = (   0.9566801   4.9710557  10.0000000  )
        24           Ru1 tau(  24) = (   1.9133602   5.5233952  11.5622521  )
        25           Ru1 tau(  25) = (   5.7400807   0.0000000  10.0000000  )
        26           Ru1 tau(  26) = (   6.6967608   0.5523395  11.5622521  )
        27           Ru1 tau(  27) = (   4.7834006   1.6570186  10.0000000  )
        28           Ru1 tau(  28) = (   5.7400807   2.2093581  11.5622521  )
        29           Ru1 tau(  29) = (   3.8267205   3.3140371  10.0000000  )
        30           Ru1 tau(  30) = (   4.7834006   3.8663767  11.5622521  )
        31           Ru1 tau(  31) = (   2.8700404   4.9710557  10.0000000  )
        32           Ru1 tau(  32) = (   3.8267205   5.5233952  11.5622521  )
        33           O1  tau(  33) = (   0.9570000   3.8660000  14.0622521  )
        34           O1  tau(  34) = (   2.9700351   5.1455000  17.6375311  )
        35           O1  tau(  35) = (   0.1362300   3.5131000  16.1544367  )
        36           O1  tau(  36) = (   3.0362155   3.6989000  19.3857590  )
        37           C1  tau(  37) = (   2.5256743   3.2491000  15.7010757  )
        38           C1  tau(  38) = (   2.6932348   2.8736000  17.1468990  )
        39           C1  tau(  39) = (   1.0774576   3.5397000  15.3756907  )
        40           C1  tau(  40) = (   2.9150857   3.9106000  18.1887559  )
        41           C1  tau(  41) = (   2.6211491   1.6008000  17.5656429  )
        42           H1  tau(  42) = (   3.1392465   4.1173000  15.4400139  )
        43           H1  tau(  43) = (   2.8497627   2.4180000  15.0620133  )
        44           H1  tau(  44) = (   2.4470862   0.7942000  16.8601572  )
        45           H1  tau(  45) = (   2.7295197   1.3186000  18.6075462  )
        46           H1  tau(  46) = (   0.0285546   4.0697000  13.8201376  )
        47           H1  tau(  47) = (   3.1169563   5.8427000  18.3118062  )

     number of k points=    10  Fermi-Dirac smearing, width (Ry)=  0.0073
                       cart. coord. in units 2pi/alat
        k(    1) = (   0.0000000   0.0000000   0.0000000), wk =   0.1250000
        k(    2) = (   0.0000000   0.0377183   0.0000000), wk =   0.2500000
        k(    3) = (   0.0000000  -0.0754367   0.0000000), wk =   0.1250000
        k(    4) = (   0.0326650   0.0565775   0.0000000), wk =   0.2500000
        k(    5) = (  -0.0326650   0.0188592   0.0000000), wk =   0.2500000
        k(    6) = (   0.0326650   0.0188592   0.0000000), wk =   0.2500000
        k(    7) = (   0.0653301  -0.0377183   0.0000000), wk =   0.1250000
        k(    8) = (  -0.0653301  -0.0377183   0.0000000), wk =   0.1250000
        k(    9) = (  -0.0326650   0.0565775   0.0000000), wk =   0.2500000
        k(   10) = (   0.0653301   0.0000000   0.0000000), wk =   0.2500000

     Largest allocated arrays     est. size (Mb)     dimensions
     Largest temporary arrays     est. size (Mb)     dimensions

     Initial potential from superposition of free atoms
     Check: negative starting charge=   -0.002292

     starting charge  560.04311, renormalised to  562.00000

     negative rho (up, down):  2.300E-03 0.000E+00
     Starting wfc are   42 randomized atomic wfcs +  249 random wfc

[...]

     Writing output data file calc.save
     Check: negative starting charge=   -0.002243
     NEW-OLD atomic charge density approx. for the potential
     Check: negative starting charge=   -0.002244

[...]

     Self-consistent Calculation

[...]

     total energy              =   -6175.85323244 Ry
     Harris-Foulkes estimate   =   -6175.85323234 Ry
     estimated scf accuracy    <       0.00000075 Ry

     iteration # 11     ecut=    40.42 Ry     beta=0.07
     Davidson diagonalization with overlap
     ethr =  1.34E-10,  avg # of iterations =  3.0

     negative rho (up, down):  1.944E-03 0.000E+00

     End of self-consistent calculation

[...]

          k =-0.0327 0.0566 0.0000 ( 43655 PWs)   bands (ev):

[...]

          k = 0.0653 0.0000 0.0000 ( 43655 PWs)   bands (ev):

   -76.5160 -76.0118 -76.0115 -74.6214 -74.6213 -73.8042 -73.4662 -73.4659
   -73.4316 -73.0312 -73.0309 -72.8053 -72.8052 -72.5837 -72.5836 -72.0088
   -72.0086 -71.7292 -71.5494 -71.5493 -71.4817 -71.3068 -71.3065 -70.9729
   -70.9728 -70.9676 -70.9122 -70.9121 -70.6860 -70.6276 -70.6145 -70.6143
   -50.6022 -50.0631 -50.0631 -50.0025 -50.0024 -49.3228 -49.1786 -49.1784
   -48.8087 -48.8087 -48.7049 -48.6982 -48.6981 -48.6119 -48.6119 -48.1351
   -48.0120 -48.0118 -47.7071 -47.4170 -47.4170 -47.4050 -47.3071 -47.3069
   -46.9049 -46.8118 -46.5322 -46.5320 -45.6463 -45.6462 -45.3810 -45.0943
   -45.0943 -44.4955 -43.9761 -43.9759 -43.8731 -43.8730 -43.6969 -43.6969
   -43.5807 -43.3843 -43.3842 -43.3587 -43.3587 -42.7672 -42.5204 -42.5203
   -42.2535 -42.2535 -41.9552 -41.9552 -41.5956 -41.5196 -41.5196 -41.4773
   -41.4772 -41.1237 -40.9213 -40.8720 -40.7587 -40.7371 -40.7370 -40.7351
   -40.7349 -40.5192 -40.4895 -40.4895 -40.1516 -40.1236 -40.1235 -40.0144
   -40.0144 -39.7812 -39.7812 -39.7459 -39.7457 -39.6913 -39.6912 -39.6043
   -39.6042 -39.4516 -39.4514 -39.3547 -39.3546 -39.3266 -39.2274 -39.1732
   -39.1732 -39.1084 -39.1083 -39.0584 -38.2948 -37.9352 -37.9352 -37.4919
   -19.2526 -18.9200 -16.9469 -16.6082 -14.3368 -14.3368 -13.5270 -13.5269
   -13.1100 -12.2128 -12.2125 -12.1031 -12.1030 -12.0092 -11.9438 -11.9437
   -11.8933 -11.7829 -11.0972 -11.0972 -11.0717 -11.0716 -10.2757 -10.2757
    -9.7552  -9.7552  -9.7287  -9.7122  -9.7121  -9.6901  -9.5763  -9.5762
    -9.4287  -9.3481  -9.1174  -9.1174  -8.6290  -8.6154  -8.6153  -7.9316
    -7.8122  -7.8120  -7.7480  -7.7479  -7.3991  -7.1711  -7.0261  -7.0260
    -6.7799  -6.7724  -6.7204  -6.5058  -6.5057  -6.4696  -6.4602  -6.4601
    -5.6269  -5.6268  -5.6134  -5.6133  -5.5786  -5.5785  -5.4360  -5.3529
    -5.3529  -5.3285  -5.2530  -5.2528  -5.0961  -5.0959  -5.0448  -5.0185
    -4.3635  -4.3630  -4.2373  -4.1040  -3.7980  -3.6315  -3.5125  -3.5123
    -3.3980  -3.2112  -3.0991  -2.9601  -2.9591  -2.9537  -2.9358  -2.9357
    -2.8111  -2.6527  -2.4862  -2.4862  -2.2042  -2.1554  -2.1541  -2.0280
    -1.9951  -1.8907  -1.8905  -1.8012  -1.7987  -1.7627  -1.4544  -1.2320
    -0.8612  -0.4372  -0.4364  -0.4081  -0.3467  -0.1844  -0.1043  -0.1043
     0.0248   0.1250   0.3700   0.6239   0.7352   0.7434   0.8420   1.0681
     1.0703   1.1261   1.1262   1.5379   1.5463   1.6513   1.9869   2.0283
     2.0283   2.0780   2.0862   2.2259   2.2828   2.3818   2.3845   2.3861
     2.5028   2.5169   2.5178   2.8099   2.8106   3.1579   3.4358   3.4359
     3.7066   3.9091   3.9244   4.3856   4.3856   4.6280   4.6283   4.6432
     4.6434   4.6542   4.9687   4.9772   5.0212   5.0601   5.0602   5.3393
     5.5512   5.6183   5.6245

     the Fermi energy is     4.5257 ev

!    total energy              =   -6175.85323344 Ry
     Harris-Foulkes estimate   =   -6175.85323247 Ry
     estimated scf accuracy    <       0.00000036 Ry

     The total energy is the sum of the following terms:

     one-electron contribution = -134421.88047283 Ry
     hartree contribution      =   67173.29984695 Ry
     xc contribution           =    -745.50023624 Ry
     ewald contribution        =   61818.27928703 Ry
     smearing contrib. (-TS)   =      -0.05165834 Ry

     convergence has been achieved in  11 iterations

     Forces acting on atoms (Ry/au):

     negative rho (up, down):  1.944E-03 0.000E+00
     atom    1 type  1   force =     0.00012924   -0.00001649   -1.98036693
     atom    2 type  1   force =    -0.00010310   -0.00004729    1.98006744
     atom    3 type  1   force =    -0.00010401    0.00008552   -1.98061349
     atom    4 type  1   force =     0.00013687   -0.00005869    1.98042366
     atom    5 type  1   force =    -0.00007061   -0.00003642   -1.98052129
     atom    6 type  1   force =     0.00032532   -0.00021638    1.98016513
     atom    7 type  1   force =     0.00028425    0.00007753   -1.98031826
     atom    8 type  1   force =    -0.00046423    0.00027033    1.98034875
     atom    9 type  1   force =     0.00002347   -0.00017426   -1.98007649
     atom   10 type  1   force =    -0.00019437    0.00014256    1.98037440
     atom   11 type  1   force =     0.00002556   -0.00009571   -1.98036778
     atom   12 type  1   force =    -0.00006874    0.00008470    1.98021203
     atom   13 type  1   force =    -0.00056374   -0.00013191   -1.98035486
     atom   14 type  1   force =     0.00024141    0.00057185    1.98035219
     atom   15 type  1   force =    -0.00027381   -0.00008116   -1.98035608
     atom   16 type  1   force =     0.00087704   -0.00025066    1.98010335
     atom   17 type  1   force =    -0.00007090    0.00022198   -1.98036257
     atom   18 type  1   force =     0.00015767   -0.00017854    1.98035316
     atom   19 type  1   force =     0.00009827   -0.00014690   -1.98030106
     atom   20 type  1   force =    -0.00018447   -0.00002107    1.98041167
     atom   21 type  1   force =     0.00029867   -0.00023770   -1.98033256
     atom   22 type  1   force =    -0.00040458    0.00022497    1.98012415
     atom   23 type  1   force =    -0.00027078    0.00020315   -1.98053367
     atom   24 type  1   force =    -0.00029752   -0.00042777    1.98050355
     atom   25 type  1   force =    -0.00007832    0.00043306   -1.98053273
     atom   26 type  1   force =     0.00010189   -0.00019896    1.98053447
     atom   27 type  1   force =    -0.00000409    0.00012107   -1.98065647
     atom   28 type  1   force =     0.00007902   -0.00017322    1.98062181
     atom   29 type  1   force =     0.00034996   -0.00016637   -1.98042207
     atom   30 type  1   force =    -0.00018553    0.00019946    1.98056285
     atom   31 type  1   force =     0.00027950   -0.00008065   -1.98051589
     atom   32 type  1   force =    -0.00013394    0.00011741    1.98036462
     atom   33 type  2   force =    -0.00058403   -0.00014582   -0.00008591
     atom   34 type  2   force =     0.00038921    0.00139364    0.00016565
     atom   35 type  2   force =     0.00120572   -0.00004205    0.00072342
     atom   36 type  2   force =    -0.00002187    0.00073050   -0.00068296
     atom   37 type  3   force =    -0.00032225    0.00086073   -0.00029023
     atom   38 type  3   force =    -0.00010909    0.00030984    0.00032670
     atom   39 type  3   force =    -0.00022275    0.00033515   -0.00012877
     atom   40 type  3   force =    -0.00005958   -0.00125354    0.00131867
     atom   41 type  3   force =    -0.00097388   -0.00085677    0.00128157
     atom   42 type  4   force =    -0.00037500    0.00019690   -0.00088775
     atom   43 type  4   force =    -0.00013897    0.00007517   -0.00046151
     atom   44 type  4   force =     0.00070217   -0.00036459    0.00098102
     atom   45 type  4   force =    -0.00001410   -0.00017000   -0.00115331
     atom   46 type  4   force =     0.00123534   -0.00065941   -0.00028403
     atom   47 type  4   force =    -0.00064636   -0.00042323    0.00028639

     Total force =    11.202721     Total SCF correction =     0.004830
 !ASE

     Writing output data file calc.save

     General routines

     Parallel routines

   This run was terminated on:  11:16:56   7Apr2019

   JOB DONE.