     Program PWSCF v.5.1rc2 starts on  9Feb2019 at 22: 9:15

     Current dimensions of program PWSCF are:
     Max number of different atomic species (ntypx) = 10
     Max number of k-points (npk) =  40000
     Max angular momentum in pseudopotentials (lmaxx) =  3

     IMPORTANT: XC functional enforced from input :
     Exchange-correlation      = PBE ( 1  4  3  4 0)
     Any further DFT definition will be discarded
     Please, verify this is what you really want

     Subspace diagonalization in iterative solution of the eigenvalue problem:
     a serial algorithm will be used

     bravais-lattice index     =            0
     lattice parameter (alat)  =       1.8897  a.u.
     unit-cell volume          =   18112.9477 (a.u.)^3
     number of atoms/cell      =           48
     number of atomic types    =            4
     number of electrons       =       654.00
     number of Kohn-Sham states=          337
     kinetic-energy cutoff     =      40.4243  Ry
     charge density cutoff     =     330.7439  Ry
     convergence threshold     =      7.3E-07
     mixing beta               =       0.2000
     number of iterations used =            8  local-TF  mixing
     Exchange-correlation      = PBE ( 1  4  3  4 0)
     nstep                     =           50

     celldm(1)=   1.889726  celldm(2)=   0.000000  celldm(3)=   0.000000
     celldm(4)=   0.000000  celldm(5)=   0.000000  celldm(6)=   0.000000

     crystal axes: (cart. coord. in units of alat)
               a(1) = (  10.224481   0.000000   0.000000 )
               a(2) = (  -5.112241   8.854660   0.000000 )
               a(3) = (   0.000000   0.000000  29.646903 )

     reciprocal axes: (cart. coord. in units 2 pi/alat)
               b(1) = (  0.097804  0.056467  0.000000 )
               b(2) = (  0.000000  0.112935  0.000000 )
               b(3) = (  0.000000  0.000000  0.033730 )

     PseudoPot. # 1 for Cu read from file:
     /gpfs/pace1/project/chbe-medford/medford-share/data/pseudos/SSSP_eff_PBE/Cu.UPF
     MD5 check sum: 6e991ff952a84172a2a52a1c1e996048
     Pseudo is Ultrasoft + core correction, Zval = 19.0
     Generated by new atomic code, or converted to UPF format
     Using radial grid of  867 points,  6 beta functions with:
                l(1) =   0
                l(2) =   0
                l(3) =   1
                l(4) =   1
                l(5) =   2
                l(6) =   2
     Q(r) pseudized with  8 coefficients,  rinner =    1.150   1.150   1.150
                                                       1.150   1.150

     PseudoPot. # 2 for O  read from file:
     /gpfs/pace1/project/chbe-medford/medford-share/data/pseudos/SSSP_eff_PBE/O.UPF
     MD5 check sum: 734c27235a0248c51dbae37a1fbe46ec
     Pseudo is Ultrasoft + core correction, Zval =  6.0
     Generated by new atomic code, or converted to UPF format
     Using radial grid of  737 points,  5 beta functions with:
                l(1) =   0
                l(2) =   0
                l(3) =   1
                l(4) =   1
                l(5) =   2
     Q(r) pseudized with  8 coefficients,  rinner =    0.900   0.900   0.900
                                                       0.900   0.900

     PseudoPot. # 3 for C  read from file:
     /gpfs/pace1/project/chbe-medford/medford-share/data/pseudos/SSSP_eff_PBE/C.UPF
     MD5 check sum: d1aef80898a10debaa0f26306b886e00
     Pseudo is Ultrasoft + core correction, Zval =  4.0
     Generated by new atomic code, or converted to UPF format
     Using radial grid of  721 points,  4 beta functions with:
                l(1) =   0
                l(2) =   0
                l(3) =   1
                l(4) =   1
     Q(r) pseudized with  8 coefficients,  rinner =    1.100   1.100   1.100

     PseudoPot. # 4 for  H read from file:
     /gpfs/pace1/project/chbe-medford/medford-share/data/pseudos/SSSP_eff_PBE/H.UPF
     MD5 check sum: 36633979392af7100e6f6632747262d3
     Pseudo is Ultrasoft, Zval =  1.0
     Generated using "atomic" code by A. Dal Corso  v.5.0.99 svn rev. 10869
     Using radial grid of  929 points,  2 beta functions with:
                l(1) =   0
                l(2) =   0
     Q(r) pseudized with 0 coefficients

     atomic species   valence    mass     pseudopotential
        Cu1           19.00    63.54600     Cu( 1.00)
        O1             6.00    15.99940     O ( 1.00)
        C1             4.00    12.01100     C ( 1.00)
        H1             1.00     1.00794      H( 1.00)

     No symmetry found

   Cartesian axes

     site n.     atom                  positions (alat units)
         1           Cu1 tau(   1) = (   0.0000000   0.0000000  10.0000000  )
         2           Cu1 tau(   2) = (   1.2780602   0.7378884  12.0870635  )
         3           Cu1 tau(   3) = (  -1.2780602   2.2136651  10.0000000  )
         4           Cu1 tau(   4) = (   0.0000000   2.9515535  12.0870635  )
         5           Cu1 tau(   5) = (  -2.5561203   4.4273302  10.0000000  )
         6           Cu1 tau(   6) = (  -1.2780602   5.1652186  12.0870635  )
         7           Cu1 tau(   7) = (  -3.8341805   6.6409954  10.0000000  )
         8           Cu1 tau(   8) = (  -2.5561203   7.3788837  12.0870635  )
         9           Cu1 tau(   9) = (   2.5561203   0.0000000  10.0000000  )
        10           Cu1 tau(  10) = (   3.8341805   0.7378884  12.0870635  )
        11           Cu1 tau(  11) = (   1.2780602   2.2136651  10.0000000  )
        12           Cu1 tau(  12) = (   2.5561203   2.9515535  12.0870635  )
        13           Cu1 tau(  13) = (   0.0000000   4.4273302  10.0000000  )
        14           Cu1 tau(  14) = (   1.2780602   5.1652186  12.0870635  )
        15           Cu1 tau(  15) = (  -1.2780602   6.6409954  10.0000000  )
        16           Cu1 tau(  16) = (   0.0000000   7.3788837  12.0870635  )
        17           Cu1 tau(  17) = (   5.1122406   0.0000000  10.0000000  )
        18           Cu1 tau(  18) = (   6.3903008   0.7378884  12.0870635  )
        19           Cu1 tau(  19) = (   3.8341805   2.2136651  10.0000000  )
        20           Cu1 tau(  20) = (   5.1122406   2.9515535  12.0870635  )
        21           Cu1 tau(  21) = (   2.5561203   4.4273302  10.0000000  )
        22           Cu1 tau(  22) = (   3.8341805   5.1652186  12.0870635  )
        23           Cu1 tau(  23) = (   1.2780602   6.6409954  10.0000000  )
        24           Cu1 tau(  24) = (   2.5561203   7.3788837  12.0870635  )
        25           Cu1 tau(  25) = (   7.6683609   0.0000000  10.0000000  )
        26           Cu1 tau(  26) = (   8.9464211   0.7378884  12.0870635  )
        27           Cu1 tau(  27) = (   6.3903008   2.2136651  10.0000000  )
        28           Cu1 tau(  28) = (   7.6683609   2.9515535  12.0870635  )
        29           Cu1 tau(  29) = (   5.1122406   4.4273302  10.0000000  )
        30           Cu1 tau(  30) = (   6.3903008   5.1652186  12.0870635  )
        31           Cu1 tau(  31) = (   3.8341805   6.6409954  10.0000000  )
        32           Cu1 tau(  32) = (   5.1122406   7.3788837  12.0870635  )
        33           O1  tau(  33) = (   3.8852000   6.7898056  16.7387357  )
        34           O1  tau(  34) = (   3.8340000   2.2140000  14.5870635  )
        35           O1  tau(  35) = (   3.8849000   1.7688933  16.8136109  )
        36           C1  tau(  36) = (   3.8712000   4.5013101  17.5175261  )
        37           C1  tau(  37) = (   3.8663000   4.0802607  16.0516052  )
        38           C1  tau(  38) = (   3.8666000   6.0096773  17.6895575  )
        39           C1  tau(  39) = (   3.8331000   6.5153549  19.1084983  )
        40           C1  tau(  40) = (   3.8636000   2.5774018  15.8960331  )
        41           H1  tau(  41) = (   4.7615000   4.1056822  18.0195738  )
        42           H1  tau(  42) = (   2.9867000   4.0992707  18.0248788  )
        43           H1  tau(  43) = (   4.7551000   4.4750101  15.5462791  )
        44           H1  tau(  44) = (   2.9751000   4.4779197  15.5530396  )
        45           H1  tau(  45) = (   2.9204000   6.1686467  19.5994145  )
        46           H1  tau(  46) = (   4.7125000   6.1536997  19.6469034  )
        47           H1  tau(  47) = (   3.8426000   7.6088201  19.1109609  )
        48           H1  tau(  48) = (   3.8321000   1.2391262  14.4785945  )

     number of k points=     4  Fermi-Dirac smearing, width (Ry)=  0.0073
                       cart. coord. in units 2pi/alat
        k(    1) = (   0.0000000   0.0000000   0.0000000), wk =   0.5000000
        k(    2) = (   0.0000000  -0.0564674   0.0000000), wk =   0.5000000
        k(    3) = (   0.0489022  -0.0282337   0.0000000), wk =   0.5000000
        k(    4) = (  -0.0489022  -0.0282337   0.0000000), wk =   0.5000000

     Largest allocated arrays     est. size (Mb)     dimensions
     Largest temporary arrays     est. size (Mb)     dimensions

     Initial potential from superposition of free atoms
     Check: negative starting charge=   -0.009960

     starting charge  621.99965, renormalised to  654.00000

     negative rho (up, down):  1.047E-02 0.000E+00
     Starting wfc are  456 randomized atomic wfcs

     Self-consistent Calculation

     iteration #  1     ecut=    40.42 Ry     beta=0.20
     Davidson diagonalization with overlap
     ethr =  1.00E-02,  avg # of iterations =  4.0

     negative rho (up, down):  2.770E-01 0.000E+00

     total energy              =  -13091.75763638 Ry
     Harris-Foulkes estimate   =  -13122.27658598 Ry
     estimated scf accuracy    <     553.91600450 Ry

[...]

     End of self-consistent calculation

          k = 0.0000 0.0000 0.0000 ( 78683 PWs)   bands (ev):

  -113.6462-113.6068-113.6018-113.5985-113.5983-113.5978-113.5966-113.5960
  -113.5948-113.5940-113.5933-113.5931-113.5923-113.5916-113.5911-113.5907
  -113.5904-113.5901-113.5894-113.5891-113.5883-113.5874-113.5872-113.5870
  -113.5870-113.5861-113.5860-113.5852-113.5844-113.5840-113.5837-113.5829
   -71.0838 -71.0817 -71.0694 -71.0649 -71.0628 -71.0615 -71.0579 -71.0561
   -71.0532 -71.0524 -71.0517 -71.0511 -71.0504 -71.0497 -71.0479 -71.0469
   -71.0461 -71.0460 -71.0364 -71.0349 -71.0288 -71.0282 -71.0271 -71.0264
   -71.0245 -71.0244 -71.0235 -71.0225 -71.0224 -71.0215 -71.0203 -71.0200
   -71.0193 -71.0191 -71.0189 -71.0181 -71.0136 -71.0134 -71.0129 -71.0125
   -71.0122 -71.0116 -71.0092 -71.0081 -71.0072 -71.0001 -70.9998 -70.9977
   -70.9976 -70.9971 -70.9958 -70.9957 -70.9950 -70.9944 -70.9936 -70.9890
   -70.9875 -70.9860 -70.9856 -70.9842 -70.9840 -70.9838 -70.9832 -70.9762
   -70.9760 -70.9589 -70.9518 -70.9473 -70.9469 -70.9464 -70.9449 -70.9424
   -70.9343 -70.9327 -70.9317 -70.9317 -70.9299 -70.9296 -70.9272 -70.9269
   -70.9225 -70.9146 -70.9139 -70.9134 -70.9128 -70.9117 -70.9109 -70.9096
   -70.9088 -70.9081 -70.9077 -70.9062 -70.9058 -70.9054 -70.9045 -70.9021
   -24.6826 -22.7379 -22.3446 -16.9476 -15.5622 -14.0610 -12.0212  -9.8911
    -9.3146  -9.1802  -9.1617  -8.7672  -8.1057  -7.8423  -7.5720  -7.4895
    -7.4875  -7.4830  -7.4827  -7.4822  -7.4488  -7.1740  -6.6788  -6.5499
    -5.9969  -5.9439  -5.8887  -5.6175  -5.6157  -5.6132  -5.5902  -5.5890
[...]
               a(2) = (  -5.112241   8.854660   0.000000 )
               a(3) = (   0.000000   0.000000  29.646903 )

     reciprocal axes: (cart. coord. in units 2 pi/alat)
               b(1) = (  0.097804  0.056467  0.000000 )
               b(2) = (  0.000000  0.112935  0.000000 )
               b(3) = (  0.000000  0.000000  0.033730 )

     PseudoPot. # 1 for Cu read from file:
     /gpfs/pace1/project/chbe-medford/medford-share/data/pseudos/SSSP_eff_PBE/Cu.UPF
     MD5 check sum: 6e991ff952a84172a2a52a1c1e996048
     Pseudo is Ultrasoft + core correction, Zval = 19.0
     Generated by new atomic code, or converted to UPF format
     Using radial grid of  867 points,  6 beta functions with:
                l(1) =   0
                l(2) =   0
                l(3) =   1
                l(4) =   1
                l(5) =   2
                l(6) =   2
     Q(r) pseudized with  8 coefficients,  rinner =    1.150   1.150   1.150
                                                       1.150   1.150

     PseudoPot. # 2 for O  read from file:
     /gpfs/pace1/project/chbe-medford/medford-share/data/pseudos/SSSP_eff_PBE/O.UPF
     MD5 check sum: 734c27235a0248c51dbae37a1fbe46ec
     Pseudo is Ultrasoft + core correction, Zval =  6.0
     Generated by new atomic code, or converted to UPF format
     Using radial grid of  737 points,  5 beta functions with:
                l(1) =   0
                l(2) =   0
                l(3) =   1
                l(4) =   1
                l(5) =   2
     Q(r) pseudized with  8 coefficients,  rinner =    0.900   0.900   0.900
                                                       0.900   0.900

     PseudoPot. # 3 for C  read from file:
     /gpfs/pace1/project/chbe-medford/medford-share/data/pseudos/SSSP_eff_PBE/C.UPF
     MD5 check sum: d1aef80898a10debaa0f26306b886e00
     Pseudo is Ultrasoft + core correction, Zval =  4.0
     Generated by new atomic code, or converted to UPF format
     Using radial grid of  721 points,  4 beta functions with:
                l(1) =   0
                l(2) =   0
                l(3) =   1
                l(4) =   1
     Q(r) pseudized with  8 coefficients,  rinner =    1.100   1.100   1.100

     PseudoPot. # 4 for  H read from file:
     /gpfs/pace1/project/chbe-medford/medford-share/data/pseudos/SSSP_eff_PBE/H.UPF
     MD5 check sum: 36633979392af7100e6f6632747262d3
     Pseudo is Ultrasoft, Zval =  1.0
     Generated using "atomic" code by A. Dal Corso  v.5.0.99 svn rev. 10869
     Using radial grid of  929 points,  2 beta functions with:
                l(1) =   0
                l(2) =   0
     Q(r) pseudized with 0 coefficients

     atomic species   valence    mass     pseudopotential
        Cu1           19.00    63.54600     Cu( 1.00)
        O1             6.00    15.99940     O ( 1.00)
        C1             4.00    12.01100     C ( 1.00)
        H1             1.00     1.00794      H( 1.00)

     No symmetry found

   Cartesian axes

     site n.     atom                  positions (alat units)
         1           Cu1 tau(   1) = (   0.0000000   0.0000000  10.0000000  )
         2           Cu1 tau(   2) = (   1.2780602   0.7378884  12.0870635  )
         3           Cu1 tau(   3) = (  -1.2780602   2.2136651  10.0000000  )
         4           Cu1 tau(   4) = (   0.0000000   2.9515535  12.0870635  )
         5           Cu1 tau(   5) = (  -2.5561203   4.4273302  10.0000000  )
         6           Cu1 tau(   6) = (  -1.2780602   5.1652186  12.0870635  )
         7           Cu1 tau(   7) = (  -3.8341805   6.6409954  10.0000000  )
         8           Cu1 tau(   8) = (  -2.5561203   7.3788837  12.0870635  )
         9           Cu1 tau(   9) = (   2.5561203   0.0000000  10.0000000  )
        10           Cu1 tau(  10) = (   3.8341805   0.7378884  12.0870635  )
        11           Cu1 tau(  11) = (   1.2780602   2.2136651  10.0000000  )
        12           Cu1 tau(  12) = (   2.5561203   2.9515535  12.0870635  )
        13           Cu1 tau(  13) = (   0.0000000   4.4273302  10.0000000  )
        14           Cu1 tau(  14) = (   1.2780602   5.1652186  12.0870635  )
        15           Cu1 tau(  15) = (  -1.2780602   6.6409954  10.0000000  )
        16           Cu1 tau(  16) = (   0.0000000   7.3788837  12.0870635  )
        17           Cu1 tau(  17) = (   5.1122406   0.0000000  10.0000000  )
        18           Cu1 tau(  18) = (   6.3903008   0.7378884  12.0870635  )
        19           Cu1 tau(  19) = (   3.8341805   2.2136651  10.0000000  )
        20           Cu1 tau(  20) = (   5.1122406   2.9515535  12.0870635  )
        21           Cu1 tau(  21) = (   2.5561203   4.4273302  10.0000000  )
        22           Cu1 tau(  22) = (   3.8341805   5.1652186  12.0870635  )
        23           Cu1 tau(  23) = (   1.2780602   6.6409954  10.0000000  )
        24           Cu1 tau(  24) = (   2.5561203   7.3788837  12.0870635  )
        25           Cu1 tau(  25) = (   7.6683609   0.0000000  10.0000000  )
        26           Cu1 tau(  26) = (   8.9464211   0.7378884  12.0870635  )
        27           Cu1 tau(  27) = (   6.3903008   2.2136651  10.0000000  )
        28           Cu1 tau(  28) = (   7.6683609   2.9515535  12.0870635  )
        29           Cu1 tau(  29) = (   5.1122406   4.4273302  10.0000000  )
        30           Cu1 tau(  30) = (   6.3903008   5.1652186  12.0870635  )
        31           Cu1 tau(  31) = (   3.8341805   6.6409954  10.0000000  )
        32           Cu1 tau(  32) = (   5.1122406   7.3788837  12.0870635  )
        33           O1  tau(  33) = (   3.8852000   6.7898056  16.7387357  )
        34           O1  tau(  34) = (   3.8340000   2.2140000  14.5870635  )
        35           O1  tau(  35) = (   3.8849000   1.7688933  16.8136109  )
        36           C1  tau(  36) = (   3.8712000   4.5013101  17.5175261  )
        37           C1  tau(  37) = (   3.8663000   4.0802607  16.0516052  )
        38           C1  tau(  38) = (   3.8666000   6.0096773  17.6895575  )
        39           C1  tau(  39) = (   3.8331000   6.5153549  19.1084983  )
        40           C1  tau(  40) = (   3.8636000   2.5774018  15.8960331  )
        41           H1  tau(  41) = (   4.7615000   4.1056822  18.0195738  )
        42           H1  tau(  42) = (   2.9867000   4.0992707  18.0248788  )
        43           H1  tau(  43) = (   4.7551000   4.4750101  15.5462791  )
        44           H1  tau(  44) = (   2.9751000   4.4779197  15.5530396  )
        45           H1  tau(  45) = (   2.9204000   6.1686467  19.5994145  )
        46           H1  tau(  46) = (   4.7125000   6.1536997  19.6469034  )
        47           H1  tau(  47) = (   3.8426000   7.6088201  19.1109609  )
        48           H1  tau(  48) = (   3.8321000   1.2391262  14.4785945  )

     number of k points=    10  Fermi-Dirac smearing, width (Ry)=  0.0073
                       cart. coord. in units 2pi/alat
        k(    1) = (   0.0000000   0.0000000   0.0000000), wk =   0.1250000
        k(    2) = (   0.0000000   0.0282337   0.0000000), wk =   0.2500000
        k(    3) = (   0.0000000  -0.0564674   0.0000000), wk =   0.1250000
        k(    4) = (   0.0244511   0.0423506   0.0000000), wk =   0.2500000
        k(    5) = (  -0.0244511   0.0141169   0.0000000), wk =   0.2500000
        k(    6) = (   0.0244511   0.0141169   0.0000000), wk =   0.2500000
        k(    7) = (   0.0489022  -0.0282337   0.0000000), wk =   0.1250000
        k(    8) = (  -0.0489022  -0.0282337   0.0000000), wk =   0.1250000
        k(    9) = (  -0.0244511   0.0423506   0.0000000), wk =   0.2500000
        k(   10) = (   0.0489022  -0.0000000   0.0000000), wk =   0.2500000

     Largest allocated arrays     est. size (Mb)     dimensions
     Largest temporary arrays     est. size (Mb)     dimensions

     Initial potential from superposition of free atoms
     Check: negative starting charge=   -0.009960

     starting charge  621.99965, renormalised to  654.00000

     negative rho (up, down):  1.047E-02 0.000E+00
     Starting wfc are  456 randomized atomic wfcs

[...]

     Total force =     0.021471     Total SCF correction =     0.000997
 !ASE

[...]

     Writing output data file calc.save
     Check: negative starting charge=   -0.009779
     NEW-OLD atomic charge density approx. for the potential
     Check: negative starting charge=   -0.009778

[...]

     Self-consistent Calculation

[...]

     total energy              =  -13083.74550676 Ry
     Harris-Foulkes estimate   =  -13083.74550688 Ry
     estimated scf accuracy    <       0.00000071 Ry

     iteration #  7     ecut=    40.42 Ry     beta=0.07
     Davidson diagonalization with overlap
     ethr =  1.08E-10,  avg # of iterations =  2.0

     negative rho (up, down):  4.124E-03 0.000E+00

     End of self-consistent calculation

[...]

          k =-0.0245 0.0424 0.0000 ( 78586 PWs)   bands (ev):

[...]

          k = 0.0489-0.0000 0.0000 ( 78586 PWs)   bands (ev):

  -113.5553-113.5533-113.5531-113.5503-113.5496-113.5486-113.5484-113.5479
  -113.5472-113.5469-113.5465-113.5463-113.5457-113.5453-113.5451-113.5446
  -113.5441-113.5440-113.5437-113.5436-113.5427-113.5426-113.5424-113.5423
  -113.5421-113.5418-113.5416-113.5411-113.5410-113.5401-113.5391-113.5383
   -71.0190 -71.0155 -71.0152 -71.0137 -71.0135 -71.0115 -71.0086 -71.0084
   -71.0078 -71.0077 -71.0064 -71.0061 -71.0043 -71.0038 -71.0029 -71.0022
   -71.0020 -70.9979 -70.9970 -70.9966 -70.9920 -70.9917 -70.9910 -70.9834
   -70.9828 -70.9826 -70.9796 -70.9792 -70.9771 -70.9769 -70.9698 -70.9662
   -70.9660 -70.9650 -70.9649 -70.9622 -70.9620 -70.9606 -70.9593 -70.9591
   -70.9587 -70.9584 -70.9576 -70.9548 -70.9541 -70.9540 -70.9534 -70.9532
   -70.9530 -70.9517 -70.9501 -70.9499 -70.9482 -70.9472 -70.9469 -70.9454
   -70.9450 -70.9444 -70.9439 -70.9428 -70.9398 -70.9360 -70.9358 -70.9329
   -70.9118 -70.9080 -70.9078 -70.8997 -70.8991 -70.8946 -70.8930 -70.8928
   -70.8896 -70.8892 -70.8883 -70.8872 -70.8834 -70.8815 -70.8810 -70.8766
   -70.8727 -70.8698 -70.8693 -70.8679 -70.8668 -70.8656 -70.8651 -70.8643
   -70.8642 -70.8630 -70.8627 -70.8616 -70.8608 -70.8603 -70.8595 -70.8585
   -24.5453 -22.8795 -22.2492 -16.8814 -15.5103 -13.9129 -11.6295  -9.9313
    -9.1169  -8.9789  -8.9080  -8.6361  -8.4316  -8.4295  -7.9661  -7.8459
    -7.5982  -7.1508  -7.1503  -6.9724  -6.5746  -6.4558  -6.2860  -6.2857
    -6.2785  -6.0730  -6.0022  -5.8937  -5.8883  -5.8540  -5.8538  -5.8338
    -5.8335  -5.7379  -5.3937  -5.3817  -5.3633  -5.3073  -5.3067  -5.2619
    -5.2618  -5.1868  -5.1868  -5.1018  -5.1018  -5.0934  -5.0933  -5.0665
    -5.0657  -5.0120  -5.0050  -4.9887  -4.9884  -4.8916  -4.8915  -4.8750
    -4.8748  -4.8495  -4.8492  -4.7852  -4.7610  -4.7356  -4.6744  -4.6577
    -4.5490  -4.5484  -4.4592  -4.4080  -4.4063  -4.2540  -4.2538  -4.2306
    -4.2087  -4.2082  -4.2067  -4.2062  -4.2023  -4.1926  -4.1916  -4.1609
    -4.1589  -4.1585  -4.1480  -4.1477  -4.1387  -4.1385  -4.1264  -4.0826
    -4.0824  -4.0643  -4.0485  -4.0371  -4.0016  -3.9657  -3.9655  -3.9581
    -3.9527  -3.9277  -3.9263  -3.8586  -3.8549  -3.8548  -3.8312  -3.7996
    -3.7995  -3.7969  -3.7965  -3.7957  -3.7400  -3.7393  -3.7008  -3.7005
    -3.6963  -3.6960  -3.6939  -3.6937  -3.6693  -3.6690  -3.6601  -3.6347
    -3.6339  -3.6307  -3.6304  -3.6013  -3.6004  -3.5779  -3.5774  -3.5563
    -3.5340  -3.5336  -3.5014  -3.5008  -3.4704  -3.4373  -3.3905  -3.3780
    -3.3526  -3.2923  -3.2870  -3.2797  -3.2777  -3.2739  -3.2253  -3.2107
    -3.2004  -3.2002  -3.1888  -3.1879  -3.1792  -3.1775  -3.1392  -3.1386
    -3.1109  -3.1106  -3.0983  -3.0859  -3.0208  -3.0169  -3.0166  -3.0037
    -3.0036  -2.9718  -2.9717  -2.9716  -2.9714  -2.9707  -2.9536  -2.9535
    -2.9170  -2.9167  -2.9135  -2.9132  -2.8902  -2.8869  -2.8735  -2.8700
    -2.8694  -2.8301  -2.8299  -2.8211  -2.8131  -2.8129  -2.7982  -2.7661
    -2.7661  -2.7513  -2.7290  -2.7289  -2.6796  -2.6794  -2.6277  -2.5677
    -2.4737  -2.4675  -2.0361  -2.0352  -1.9850  -1.9846  -1.6139  -1.6038
    -0.8757  -0.6850  -0.6803  -0.4790   0.0048   0.1990   0.2005   0.2452
     0.2605

     the Fermi energy is    -1.3013 ev

!    total energy              =  -13083.74550671 Ry
     Harris-Foulkes estimate   =  -13083.74550678 Ry
     estimated scf accuracy    <       0.00000036 Ry

     The total energy is the sum of the following terms:

     one-electron contribution = -112264.95065789 Ry
     hartree contribution      =   56129.32241871 Ry
     xc contribution           =   -1285.99733767 Ry
     ewald contribution        =   44337.89819861 Ry
     smearing contrib. (-TS)   =      -0.01812846 Ry

     convergence has been achieved in   7 iterations

     Forces acting on atoms (Ry/au):

     negative rho (up, down):  4.124E-03 0.000E+00
     atom    1 type  1   force =    -0.00005284   -0.00002084   -0.00072766
     atom    2 type  1   force =     0.00001635   -0.00006027    0.00065192
     atom    3 type  1   force =    -0.00000978   -0.00003997   -0.00084770
     atom    4 type  1   force =     0.00000429    0.00007726    0.00078962
     atom    5 type  1   force =    -0.00003864   -0.00003155   -0.00086253
     atom    6 type  1   force =     0.00000800    0.00002186    0.00083950
     atom    7 type  1   force =    -0.00006914   -0.00001335   -0.00081715
     atom    8 type  1   force =     0.00014882    0.00007089    0.00083664
     atom    9 type  1   force =    -0.00002854    0.00010361   -0.00086805
     atom   10 type  1   force =     0.00004102   -0.00041659    0.00039429
     atom   11 type  1   force =     0.00006873   -0.00002472   -0.00077682
     atom   12 type  1   force =    -0.00026444    0.00022586    0.00089457
     atom   13 type  1   force =     0.00003900   -0.00001611   -0.00086449
     atom   14 type  1   force =    -0.00000436   -0.00006370    0.00079481
     atom   15 type  1   force =     0.00001127   -0.00000889   -0.00095244
     atom   16 type  1   force =    -0.00011380    0.00007484    0.00084547
     atom   17 type  1   force =     0.00004237    0.00009200   -0.00086394
     atom   18 type  1   force =    -0.00003494   -0.00005505    0.00068371
     atom   19 type  1   force =     0.00000211    0.00003039   -0.00063811
     atom   20 type  1   force =     0.00029547    0.00020345    0.00085451
     atom   21 type  1   force =     0.00007770   -0.00001215   -0.00076662
     atom   22 type  1   force =    -0.00000672   -0.00008271    0.00082615
     atom   23 type  1   force =     0.00006767   -0.00000053   -0.00080788
     atom   24 type  1   force =    -0.00012704   -0.00003931    0.00109120
     atom   25 type  1   force =     0.00003006   -0.00002554   -0.00072428
     atom   26 type  1   force =    -0.00002633    0.00010248    0.00076646
     atom   27 type  1   force =    -0.00006617   -0.00003732   -0.00079555
     atom   28 type  1   force =    -0.00003440    0.00005734    0.00078127
     atom   29 type  1   force =    -0.00008676   -0.00002052   -0.00078344
     atom   30 type  1   force =    -0.00000187   -0.00010428    0.00081172
     atom   31 type  1   force =    -0.00001390    0.00000124   -0.00064302
     atom   32 type  1   force =     0.00008696   -0.00004947    0.00110001
     atom   33 type  2   force =     0.00035285    0.00041986   -0.00170881
     atom   34 type  2   force =    -0.00034876    0.00082461   -0.00008139
     atom   35 type  2   force =     0.00018787   -0.00001968    0.00077311
     atom   36 type  3   force =    -0.00049381    0.00030941    0.00175171
     atom   37 type  3   force =    -0.00070326   -0.00035988   -0.00173870
     atom   38 type  3   force =     0.00037377   -0.00065841    0.00021692
     atom   39 type  3   force =     0.00082045   -0.00022269    0.00096954
     atom   40 type  3   force =    -0.00051516    0.00164223   -0.00005148
     atom   41 type  4   force =    -0.00051681   -0.00000021   -0.00069711
     atom   42 type  4   force =     0.00086106   -0.00021686   -0.00013899
     atom   43 type  4   force =    -0.00051470   -0.00052494    0.00063001
     atom   44 type  4   force =     0.00093255   -0.00009145    0.00030779
     atom   45 type  4   force =    -0.00128223    0.00008151    0.00075131
     atom   46 type  4   force =     0.00026548   -0.00000371   -0.00013356
     atom   47 type  4   force =    -0.00008248   -0.00022520   -0.00102502
     atom   48 type  4   force =     0.00070303   -0.00089293   -0.00004749

     Total force =     0.006849     Total SCF correction =     0.001296
     SCF correction compared to forces is large: reduce conv_thr to get better values
 !ASE

     Writing output data file calc.save

     General routines

     Parallel routines

   This run was terminated on:  15:56: 0   9Apr2019

   JOB DONE.