     Program PWSCF v.5.1rc2 starts on  9Feb2019 at 22:48:31

     Current dimensions of program PWSCF are:
     Max number of different atomic species (ntypx) = 10
     Max number of k-points (npk) =  40000
     Max angular momentum in pseudopotentials (lmaxx) =  3

     IMPORTANT: XC functional enforced from input :
     Exchange-correlation      = PBE ( 1  4  3  4 0)
     Any further DFT definition will be discarded
     Please, verify this is what you really want

     Subspace diagonalization in iterative solution of the eigenvalue problem:
     a serial algorithm will be used

     bravais-lattice index     =            0
     lattice parameter (alat)  =       1.8897  a.u.
     unit-cell volume          =   18274.0366 (a.u.)^3
     number of atoms/cell      =           47
     number of atomic types    =            4
     number of electrons       =       658.00
     number of Kohn-Sham states=          339
     kinetic-energy cutoff     =      40.4243  Ry
     charge density cutoff     =     330.7439  Ry
     convergence threshold     =      7.3E-07
     mixing beta               =       0.2000
     number of iterations used =            8  local-TF  mixing
     Exchange-correlation      = PBE ( 1  4  3  4 0)
     nstep                     =           50

     celldm(1)=   1.889726  celldm(2)=   0.000000  celldm(3)=   0.000000
     celldm(4)=   0.000000  celldm(5)=   0.000000  celldm(6)=   0.000000

     crystal axes: (cart. coord. in units of alat)
               a(1) = (  10.224481   0.000000   0.000000 )
               a(2) = (  -5.112241   8.854660   0.000000 )
               a(3) = (   0.000000   0.000000  29.910570 )

     reciprocal axes: (cart. coord. in units 2 pi/alat)
               b(1) = (  0.097804  0.056467  0.000000 )
               b(2) = (  0.000000  0.112935  0.000000 )
               b(3) = (  0.000000  0.000000  0.033433 )

     PseudoPot. # 1 for Cu read from file:
     /gpfs/pace1/project/chbe-medford/medford-share/data/pseudos/SSSP_eff_PBE/Cu.UPF
     MD5 check sum: 6e991ff952a84172a2a52a1c1e996048
     Pseudo is Ultrasoft + core correction, Zval = 19.0
     Generated by new atomic code, or converted to UPF format
     Using radial grid of  867 points,  6 beta functions with:
                l(1) =   0
                l(2) =   0
                l(3) =   1
                l(4) =   1
                l(5) =   2
                l(6) =   2
     Q(r) pseudized with  8 coefficients,  rinner =    1.150   1.150   1.150
                                                       1.150   1.150

     PseudoPot. # 2 for O  read from file:
     /gpfs/pace1/project/chbe-medford/medford-share/data/pseudos/SSSP_eff_PBE/O.UPF
     MD5 check sum: 734c27235a0248c51dbae37a1fbe46ec
     Pseudo is Ultrasoft + core correction, Zval =  6.0
     Generated by new atomic code, or converted to UPF format
     Using radial grid of  737 points,  5 beta functions with:
                l(1) =   0
                l(2) =   0
                l(3) =   1
                l(4) =   1
                l(5) =   2
     Q(r) pseudized with  8 coefficients,  rinner =    0.900   0.900   0.900
                                                       0.900   0.900

     PseudoPot. # 3 for C  read from file:
     /gpfs/pace1/project/chbe-medford/medford-share/data/pseudos/SSSP_eff_PBE/C.UPF
     MD5 check sum: d1aef80898a10debaa0f26306b886e00
     Pseudo is Ultrasoft + core correction, Zval =  4.0
     Generated by new atomic code, or converted to UPF format
     Using radial grid of  721 points,  4 beta functions with:
                l(1) =   0
                l(2) =   0
                l(3) =   1
                l(4) =   1
     Q(r) pseudized with  8 coefficients,  rinner =    1.100   1.100   1.100

     PseudoPot. # 4 for  H read from file:
     /gpfs/pace1/project/chbe-medford/medford-share/data/pseudos/SSSP_eff_PBE/H.UPF
     MD5 check sum: 36633979392af7100e6f6632747262d3
     Pseudo is Ultrasoft, Zval =  1.0
     Generated using "atomic" code by A. Dal Corso  v.5.0.99 svn rev. 10869
     Using radial grid of  929 points,  2 beta functions with:
                l(1) =   0
                l(2) =   0
     Q(r) pseudized with 0 coefficients

     atomic species   valence    mass     pseudopotential
        Cu1           19.00    63.54600     Cu( 1.00)
        O1             6.00    15.99940     O ( 1.00)
        C1             4.00    12.01100     C ( 1.00)
        H1             1.00     1.00794      H( 1.00)

     No symmetry found

   Cartesian axes

     site n.     atom                  positions (alat units)
         1           Cu1 tau(   1) = (   0.0000000   0.0000000  10.0000000  )
         2           Cu1 tau(   2) = (   1.2780602   0.7378884  12.0870635  )
         3           Cu1 tau(   3) = (  -1.2780602   2.2136651  10.0000000  )
         4           Cu1 tau(   4) = (   0.0000000   2.9515535  12.0870635  )
         5           Cu1 tau(   5) = (  -2.5561203   4.4273302  10.0000000  )
         6           Cu1 tau(   6) = (  -1.2780602   5.1652186  12.0870635  )
         7           Cu1 tau(   7) = (  -3.8341805   6.6409954  10.0000000  )
         8           Cu1 tau(   8) = (  -2.5561203   7.3788837  12.0870635  )
         9           Cu1 tau(   9) = (   2.5561203   0.0000000  10.0000000  )
        10           Cu1 tau(  10) = (   3.8341805   0.7378884  12.0870635  )
        11           Cu1 tau(  11) = (   1.2780602   2.2136651  10.0000000  )
        12           Cu1 tau(  12) = (   2.5561203   2.9515535  12.0870635  )
        13           Cu1 tau(  13) = (   0.0000000   4.4273302  10.0000000  )
        14           Cu1 tau(  14) = (   1.2780602   5.1652186  12.0870635  )
        15           Cu1 tau(  15) = (  -1.2780602   6.6409954  10.0000000  )
        16           Cu1 tau(  16) = (   0.0000000   7.3788837  12.0870635  )
        17           Cu1 tau(  17) = (   5.1122406   0.0000000  10.0000000  )
        18           Cu1 tau(  18) = (   6.3903008   0.7378884  12.0870635  )
        19           Cu1 tau(  19) = (   3.8341805   2.2136651  10.0000000  )
        20           Cu1 tau(  20) = (   5.1122406   2.9515535  12.0870635  )
        21           Cu1 tau(  21) = (   2.5561203   4.4273302  10.0000000  )
        22           Cu1 tau(  22) = (   3.8341805   5.1652186  12.0870635  )
        23           Cu1 tau(  23) = (   1.2780602   6.6409954  10.0000000  )
        24           Cu1 tau(  24) = (   2.5561203   7.3788837  12.0870635  )
        25           Cu1 tau(  25) = (   7.6683609   0.0000000  10.0000000  )
        26           Cu1 tau(  26) = (   8.9464211   0.7378884  12.0870635  )
        27           Cu1 tau(  27) = (   6.3903008   2.2136651  10.0000000  )
        28           Cu1 tau(  28) = (   7.6683609   2.9515535  12.0870635  )
        29           Cu1 tau(  29) = (   5.1122406   4.4273302  10.0000000  )
        30           Cu1 tau(  30) = (   6.3903008   5.1652186  12.0870635  )
        31           Cu1 tau(  31) = (   3.8341805   6.6409954  10.0000000  )
        32           Cu1 tau(  32) = (   5.1122406   7.3788837  12.0870635  )
        33           O1  tau(  33) = (   2.5560000   4.4270000  14.5870635  )
        34           O1  tau(  34) = (   4.5690351   5.7065000  18.1623425  )
        35           O1  tau(  35) = (   1.7352300   4.0741000  16.6792481  )
        36           O1  tau(  36) = (   4.6352155   4.2599000  19.9105704  )
        37           C1  tau(  37) = (   4.1246743   3.8101000  16.2258871  )
        38           C1  tau(  38) = (   4.2922348   3.4346000  17.6717104  )
        39           C1  tau(  39) = (   2.6764576   4.1007000  15.9005021  )
        40           C1  tau(  40) = (   4.5140857   4.4716000  18.7135673  )
        41           C1  tau(  41) = (   4.2201491   2.1618000  18.0904543  )
        42           H1  tau(  42) = (   4.7382465   4.6783000  15.9648253  )
        43           H1  tau(  43) = (   4.4487627   2.9790000  15.5868247  )
        44           H1  tau(  44) = (   4.0460862   1.3552000  17.3849686  )
        45           H1  tau(  45) = (   4.3285197   1.8796000  19.1323576  )
        46           H1  tau(  46) = (   1.6275546   4.6307000  14.3449490  )
        47           H1  tau(  47) = (   4.7159563   6.4037000  18.8366176  )

     number of k points=     4  Fermi-Dirac smearing, width (Ry)=  0.0073
                       cart. coord. in units 2pi/alat
        k(    1) = (   0.0000000   0.0000000   0.0000000), wk =   0.5000000
        k(    2) = (   0.0000000  -0.0564674   0.0000000), wk =   0.5000000
        k(    3) = (   0.0489022  -0.0282337   0.0000000), wk =   0.5000000
        k(    4) = (  -0.0489022  -0.0282337   0.0000000), wk =   0.5000000

     Largest allocated arrays     est. size (Mb)     dimensions
     Largest temporary arrays     est. size (Mb)     dimensions

     Initial potential from superposition of free atoms
     Check: negative starting charge=   -0.010062

     starting charge  625.99967, renormalised to  658.00000

     negative rho (up, down):  1.058E-02 0.000E+00
     Starting wfc are  458 randomized atomic wfcs

     Self-consistent Calculation

     iteration #  1     ecut=    40.42 Ry     beta=0.20
     Davidson diagonalization with overlap
     ethr =  1.00E-02,  avg # of iterations =  5.0

     negative rho (up, down):  2.758E-01 0.000E+00

     total energy              =  -13128.64931807 Ry
     Harris-Foulkes estimate   =  -13159.66017073 Ry
     estimated scf accuracy    <     719.65708359 Ry

[...]

     End of self-consistent calculation

          k = 0.0000 0.0000 0.0000 ( 79441 PWs)   bands (ev):

  -114.0491-113.9984-113.9963-113.9938-113.9935-113.9902-113.9897-113.9887
  -113.9883-113.9870-113.9866-113.9854-113.9849-113.9844-113.9836-113.9836
  -113.9831-113.9829-113.9826-113.9823-113.9821-113.9818-113.9816-113.9809
  -113.9801-113.9799-113.9796-113.9792-113.9787-113.9778-113.9761-113.9729
   -71.4834 -71.4805 -71.4630 -71.4580 -71.4564 -71.4549 -71.4518 -71.4504
   -71.4472 -71.4459 -71.4452 -71.4446 -71.4433 -71.4432 -71.4407 -71.4398
   -71.4393 -71.4386 -71.4312 -71.4299 -71.4223 -71.4214 -71.4209 -71.4201
   -71.4184 -71.4176 -71.4175 -71.4161 -71.4151 -71.4147 -71.4137 -71.4136
   -71.4128 -71.4123 -71.4119 -71.4115 -71.4066 -71.4065 -71.4062 -71.4056
   -71.4053 -71.4047 -71.4031 -71.4014 -71.4010 -71.3982 -71.3937 -71.3934
   -71.3910 -71.3905 -71.3894 -71.3891 -71.3885 -71.3876 -71.3869 -71.3820
   -71.3805 -71.3797 -71.3788 -71.3780 -71.3770 -71.3768 -71.3766 -71.3692
   -71.3691 -71.3524 -71.3444 -71.3415 -71.3399 -71.3394 -71.3384 -71.3356
   -71.3285 -71.3261 -71.3245 -71.3239 -71.3234 -71.3230 -71.3218 -71.3211
   -71.3154 -71.3079 -71.3063 -71.3058 -71.3056 -71.3053 -71.3044 -71.3032
   -71.3026 -71.3008 -71.3005 -71.2992 -71.2987 -71.2978 -71.2974 -71.2970
   -24.9194 -24.5109 -22.5711 -22.1152 -17.6153 -15.4018 -13.7011 -12.7368
   -10.8093  -9.7065  -9.4770  -9.4123  -9.0208  -8.6007  -8.3089  -7.8896
    -7.8831  -7.8778  -7.8765  -7.8757  -7.8741  -7.7809  -7.4097  -7.0420
    -6.9058  -6.8240  -6.4498  -6.0104  -6.0093  -6.0076  -5.9837  -5.9826
    -5.9812  -5.8689  -5.8449  -5.8447  -5.8425  -5.8419  -5.8410  -5.8389
[...]

     crystal axes: (cart. coord. in units of alat)
               a(1) = (  10.224481   0.000000   0.000000 )
               a(2) = (  -5.112241   8.854660   0.000000 )
               a(3) = (   0.000000   0.000000  29.910570 )

     reciprocal axes: (cart. coord. in units 2 pi/alat)
               b(1) = (  0.097804  0.056467  0.000000 )
               b(2) = (  0.000000  0.112935  0.000000 )
               b(3) = (  0.000000  0.000000  0.033433 )

     PseudoPot. # 1 for Cu read from file:
     /gpfs/pace1/project/chbe-medford/medford-share/data/pseudos/SSSP_eff_PBE/Cu.UPF
     MD5 check sum: 6e991ff952a84172a2a52a1c1e996048
     Pseudo is Ultrasoft + core correction, Zval = 19.0
     Generated by new atomic code, or converted to UPF format
     Using radial grid of  867 points,  6 beta functions with:
                l(1) =   0
                l(2) =   0
                l(3) =   1
                l(4) =   1
                l(5) =   2
                l(6) =   2
     Q(r) pseudized with  8 coefficients,  rinner =    1.150   1.150   1.150
                                                       1.150   1.150

     PseudoPot. # 2 for O  read from file:
     /gpfs/pace1/project/chbe-medford/medford-share/data/pseudos/SSSP_eff_PBE/O.UPF
     MD5 check sum: 734c27235a0248c51dbae37a1fbe46ec
     Pseudo is Ultrasoft + core correction, Zval =  6.0
     Generated by new atomic code, or converted to UPF format
     Using radial grid of  737 points,  5 beta functions with:
                l(1) =   0
                l(2) =   0
                l(3) =   1
                l(4) =   1
                l(5) =   2
     Q(r) pseudized with  8 coefficients,  rinner =    0.900   0.900   0.900
                                                       0.900   0.900

     PseudoPot. # 3 for C  read from file:
     /gpfs/pace1/project/chbe-medford/medford-share/data/pseudos/SSSP_eff_PBE/C.UPF
     MD5 check sum: d1aef80898a10debaa0f26306b886e00
     Pseudo is Ultrasoft + core correction, Zval =  4.0
     Generated by new atomic code, or converted to UPF format
     Using radial grid of  721 points,  4 beta functions with:
                l(1) =   0
                l(2) =   0
                l(3) =   1
                l(4) =   1
     Q(r) pseudized with  8 coefficients,  rinner =    1.100   1.100   1.100

     PseudoPot. # 4 for  H read from file:
     /gpfs/pace1/project/chbe-medford/medford-share/data/pseudos/SSSP_eff_PBE/H.UPF
     MD5 check sum: 36633979392af7100e6f6632747262d3
     Pseudo is Ultrasoft, Zval =  1.0
     Generated using "atomic" code by A. Dal Corso  v.5.0.99 svn rev. 10869
     Using radial grid of  929 points,  2 beta functions with:
                l(1) =   0
                l(2) =   0
     Q(r) pseudized with 0 coefficients

     atomic species   valence    mass     pseudopotential
        Cu1           19.00    63.54600     Cu( 1.00)
        O1             6.00    15.99940     O ( 1.00)
        C1             4.00    12.01100     C ( 1.00)
        H1             1.00     1.00794      H( 1.00)

     No symmetry found

   Cartesian axes

     site n.     atom                  positions (alat units)
         1           Cu1 tau(   1) = (   0.0000000   0.0000000  10.0000000  )
         2           Cu1 tau(   2) = (   1.2780602   0.7378884  12.0870635  )
         3           Cu1 tau(   3) = (  -1.2780602   2.2136651  10.0000000  )
         4           Cu1 tau(   4) = (   0.0000000   2.9515535  12.0870635  )
         5           Cu1 tau(   5) = (  -2.5561203   4.4273302  10.0000000  )
         6           Cu1 tau(   6) = (  -1.2780602   5.1652186  12.0870635  )
         7           Cu1 tau(   7) = (  -3.8341805   6.6409954  10.0000000  )
         8           Cu1 tau(   8) = (  -2.5561203   7.3788837  12.0870635  )
         9           Cu1 tau(   9) = (   2.5561203   0.0000000  10.0000000  )
        10           Cu1 tau(  10) = (   3.8341805   0.7378884  12.0870635  )
        11           Cu1 tau(  11) = (   1.2780602   2.2136651  10.0000000  )
        12           Cu1 tau(  12) = (   2.5561203   2.9515535  12.0870635  )
        13           Cu1 tau(  13) = (   0.0000000   4.4273302  10.0000000  )
        14           Cu1 tau(  14) = (   1.2780602   5.1652186  12.0870635  )
        15           Cu1 tau(  15) = (  -1.2780602   6.6409954  10.0000000  )
        16           Cu1 tau(  16) = (   0.0000000   7.3788837  12.0870635  )
        17           Cu1 tau(  17) = (   5.1122406   0.0000000  10.0000000  )
        18           Cu1 tau(  18) = (   6.3903008   0.7378884  12.0870635  )
        19           Cu1 tau(  19) = (   3.8341805   2.2136651  10.0000000  )
        20           Cu1 tau(  20) = (   5.1122406   2.9515535  12.0870635  )
        21           Cu1 tau(  21) = (   2.5561203   4.4273302  10.0000000  )
        22           Cu1 tau(  22) = (   3.8341805   5.1652186  12.0870635  )
        23           Cu1 tau(  23) = (   1.2780602   6.6409954  10.0000000  )
        24           Cu1 tau(  24) = (   2.5561203   7.3788837  12.0870635  )
        25           Cu1 tau(  25) = (   7.6683609   0.0000000  10.0000000  )
        26           Cu1 tau(  26) = (   8.9464211   0.7378884  12.0870635  )
        27           Cu1 tau(  27) = (   6.3903008   2.2136651  10.0000000  )
        28           Cu1 tau(  28) = (   7.6683609   2.9515535  12.0870635  )
        29           Cu1 tau(  29) = (   5.1122406   4.4273302  10.0000000  )
        30           Cu1 tau(  30) = (   6.3903008   5.1652186  12.0870635  )
        31           Cu1 tau(  31) = (   3.8341805   6.6409954  10.0000000  )
        32           Cu1 tau(  32) = (   5.1122406   7.3788837  12.0870635  )
        33           O1  tau(  33) = (   2.5560000   4.4270000  14.5870635  )
        34           O1  tau(  34) = (   4.5690351   5.7065000  18.1623425  )
        35           O1  tau(  35) = (   1.7352300   4.0741000  16.6792481  )
        36           O1  tau(  36) = (   4.6352155   4.2599000  19.9105704  )
        37           C1  tau(  37) = (   4.1246743   3.8101000  16.2258871  )
        38           C1  tau(  38) = (   4.2922348   3.4346000  17.6717104  )
        39           C1  tau(  39) = (   2.6764576   4.1007000  15.9005021  )
        40           C1  tau(  40) = (   4.5140857   4.4716000  18.7135673  )
        41           C1  tau(  41) = (   4.2201491   2.1618000  18.0904543  )
        42           H1  tau(  42) = (   4.7382465   4.6783000  15.9648253  )
        43           H1  tau(  43) = (   4.4487627   2.9790000  15.5868247  )
        44           H1  tau(  44) = (   4.0460862   1.3552000  17.3849686  )
        45           H1  tau(  45) = (   4.3285197   1.8796000  19.1323576  )
        46           H1  tau(  46) = (   1.6275546   4.6307000  14.3449490  )
        47           H1  tau(  47) = (   4.7159563   6.4037000  18.8366176  )

     number of k points=    10  Fermi-Dirac smearing, width (Ry)=  0.0073
                       cart. coord. in units 2pi/alat
        k(    1) = (   0.0000000   0.0000000   0.0000000), wk =   0.1250000
        k(    2) = (   0.0000000   0.0282337   0.0000000), wk =   0.2500000
        k(    3) = (   0.0000000  -0.0564674   0.0000000), wk =   0.1250000
        k(    4) = (   0.0244511   0.0423506   0.0000000), wk =   0.2500000
        k(    5) = (  -0.0244511   0.0141169   0.0000000), wk =   0.2500000
        k(    6) = (   0.0244511   0.0141169   0.0000000), wk =   0.2500000
        k(    7) = (   0.0489022  -0.0282337   0.0000000), wk =   0.1250000
        k(    8) = (  -0.0489022  -0.0282337   0.0000000), wk =   0.1250000
        k(    9) = (  -0.0244511   0.0423506   0.0000000), wk =   0.2500000
        k(   10) = (   0.0489022  -0.0000000   0.0000000), wk =   0.2500000

     Largest allocated arrays     est. size (Mb)     dimensions
     Largest temporary arrays     est. size (Mb)     dimensions

     Initial potential from superposition of free atoms
     Check: negative starting charge=   -0.010062

     starting charge  625.99967, renormalised to  658.00000

     negative rho (up, down):  1.058E-02 0.000E+00
     Starting wfc are  458 randomized atomic wfcs

[...]

     Total force =     0.020440     Total SCF correction =     0.001018
 !ASE

[...]

     Writing output data file calc.save
     Check: negative starting charge=   -0.009847
     NEW-OLD atomic charge density approx. for the potential
     Check: negative starting charge=   -0.009847

[...]

     Self-consistent Calculation

[...]

     total energy              =  -13113.61901498 Ry
     Harris-Foulkes estimate   =  -13113.61901515 Ry
     estimated scf accuracy    <       0.00000089 Ry

     iteration #  8     ecut=    40.42 Ry     beta=0.07
     Davidson diagonalization with overlap
     ethr =  8.15E-11,  avg # of iterations =  3.0

     negative rho (up, down):  4.634E-03 0.000E+00

     End of self-consistent calculation

[...]

          k =-0.0245 0.0424 0.0000 ( 79268 PWs)   bands (ev):

[...]

          k = 0.0489-0.0000 0.0000 ( 79268 PWs)   bands (ev):

  -113.9478-113.9455-113.9442-113.9426-113.9413-113.9406-113.9398-113.9391
  -113.9387-113.9381-113.9378-113.9373-113.9370-113.9363-113.9360-113.9355
  -113.9352-113.9349-113.9345-113.9342-113.9338-113.9336-113.9334-113.9329
  -113.9327-113.9325-113.9322-113.9321-113.9317-113.9313-113.9309-113.9290
   -71.4105 -71.4070 -71.4066 -71.4049 -71.4047 -71.4026 -71.4001 -71.3996
   -71.3988 -71.3987 -71.3976 -71.3973 -71.3957 -71.3951 -71.3940 -71.3932
   -71.3930 -71.3889 -71.3881 -71.3878 -71.3838 -71.3829 -71.3817 -71.3749
   -71.3744 -71.3735 -71.3704 -71.3703 -71.3684 -71.3683 -71.3610 -71.3575
   -71.3573 -71.3563 -71.3559 -71.3535 -71.3533 -71.3519 -71.3507 -71.3504
   -71.3498 -71.3495 -71.3487 -71.3458 -71.3452 -71.3450 -71.3446 -71.3443
   -71.3441 -71.3427 -71.3412 -71.3411 -71.3395 -71.3383 -71.3381 -71.3366
   -71.3360 -71.3355 -71.3352 -71.3338 -71.3309 -71.3270 -71.3269 -71.3240
   -71.3033 -71.2997 -71.2989 -71.2914 -71.2904 -71.2861 -71.2845 -71.2839
   -71.2811 -71.2805 -71.2792 -71.2787 -71.2748 -71.2729 -71.2720 -71.2681
   -71.2637 -71.2609 -71.2603 -71.2594 -71.2578 -71.2568 -71.2558 -71.2555
   -71.2549 -71.2542 -71.2539 -71.2525 -71.2521 -71.2515 -71.2506 -71.2490
   -24.7569 -24.5188 -22.4500 -22.1961 -17.5532 -15.2690 -13.4989 -12.2813
   -10.6045  -9.3432  -9.2968  -9.1610  -8.9469  -8.8228  -8.8198  -8.5990
    -8.2504  -7.7629  -7.5420  -7.5415  -7.3478  -7.0322  -6.8488  -6.7434
    -6.6771  -6.6763  -6.6566  -6.3751  -6.2848  -6.2810  -6.2451  -6.2448
    -6.2249  -6.2247  -5.9255  -5.7729  -5.7544  -5.6984  -5.6981  -5.6531
    -5.6529  -5.5781  -5.5779  -5.4931  -5.4930  -5.4847  -5.4845  -5.4578
    -5.4574  -5.4031  -5.3962  -5.3799  -5.3797  -5.2828  -5.2827  -5.2665
    -5.2660  -5.2405  -5.2404  -5.1763  -5.1522  -5.1268  -5.0496  -4.9435
    -4.9400  -4.8928  -4.8480  -4.7987  -4.7946  -4.7226  -4.6451  -4.6447
    -4.6216  -4.5999  -4.5990  -4.5978  -4.5970  -4.5932  -4.5837  -4.5815
    -4.5522  -4.5499  -4.5491  -4.5392  -4.5385  -4.5298  -4.5295  -4.5177
    -4.4738  -4.4733  -4.4555  -4.4394  -4.4281  -4.3927  -4.3569  -4.3568
    -4.3493  -4.3439  -4.3185  -4.3167  -4.2498  -4.2461  -4.2456  -4.2225
    -4.1910  -4.1905  -4.1879  -4.1876  -4.1868  -4.1309  -4.1301  -4.0919
    -4.0918  -4.0875  -4.0873  -4.0852  -4.0849  -4.0603  -4.0601  -4.0514
    -4.0257  -4.0248  -4.0220  -4.0214  -3.9921  -3.9917  -3.9686  -3.9684
    -3.9475  -3.9253  -3.9247  -3.8924  -3.8921  -3.8774  -3.8606  -3.7824
    -3.7803  -3.7445  -3.6854  -3.6819  -3.6719  -3.6704  -3.6675  -3.6166
    -3.6057  -3.5921  -3.5915  -3.5835  -3.5798  -3.5748  -3.5704  -3.5390
    -3.5301  -3.5214  -3.5020  -3.5019  -3.4821  -3.4764  -3.4120  -3.4080
    -3.4077  -3.3949  -3.3947  -3.3643  -3.3632  -3.3627  -3.3626  -3.3624
    -3.3616  -3.3449  -3.3446  -3.3083  -3.3078  -3.3047  -3.3041  -3.2814
    -3.2761  -3.2646  -3.2611  -3.2599  -3.2213  -3.2211  -3.2122  -3.2044
    -3.2041  -3.1893  -3.1573  -3.1571  -3.1392  -3.1202  -3.1200  -3.0707
    -3.0704  -2.9588  -2.8660  -2.8549  -2.4273  -2.4264  -2.3762  -2.3758
    -2.0032  -1.9958  -1.2667  -1.0756  -1.0724  -0.8674  -0.3868  -0.1920
    -0.1896  -0.1454  -0.1339

     the Fermi energy is    -1.6921 ev

!    total energy              =  -13113.61901520 Ry
     Harris-Foulkes estimate   =  -13113.61901506 Ry
     estimated scf accuracy    <       0.00000012 Ry

     The total energy is the sum of the following terms:

     one-electron contribution = -112928.81140454 Ry
     hartree contribution      =   56453.64294806 Ry
     xc contribution           =   -1291.75605563 Ry
     ewald contribution        =   44653.32364712 Ry
     smearing contrib. (-TS)   =      -0.01815021 Ry

     convergence has been achieved in   8 iterations

     Forces acting on atoms (Ry/au):

     negative rho (up, down):  4.634E-03 0.000E+00
     atom    1 type  1   force =    -0.00002675   -0.00004929   -0.00082333
     atom    2 type  1   force =     0.00006308    0.00003402    0.00085358
     atom    3 type  1   force =     0.00002057   -0.00002628   -0.00075752
     atom    4 type  1   force =    -0.00002312    0.00010518    0.00078159
     atom    5 type  1   force =    -0.00004773    0.00001390   -0.00084739
     atom    6 type  1   force =     0.00023490    0.00003912    0.00104527
     atom    7 type  1   force =    -0.00008102   -0.00001792   -0.00080158
     atom    8 type  1   force =     0.00004398    0.00000109    0.00087126
     atom    9 type  1   force =    -0.00003206    0.00001876   -0.00080789
     atom   10 type  1   force =     0.00003881    0.00009172    0.00088623
     atom   11 type  1   force =     0.00000971    0.00009167   -0.00081236
     atom   12 type  1   force =    -0.00000307   -0.00057502    0.00048100
     atom   13 type  1   force =     0.00010009   -0.00008217   -0.00096993
     atom   14 type  1   force =    -0.00080722    0.00017728   -0.00057555
     atom   15 type  1   force =    -0.00001829    0.00000428   -0.00092245
     atom   16 type  1   force =     0.00010901   -0.00017119    0.00100056
     atom   17 type  1   force =    -0.00000634   -0.00000930   -0.00090102
     atom   18 type  1   force =    -0.00007692    0.00000594    0.00092084
     atom   19 type  1   force =    -0.00002194    0.00011919   -0.00086528
     atom   20 type  1   force =     0.00008876   -0.00015783    0.00056225
     atom   21 type  1   force =     0.00004495    0.00002223   -0.00063371
     atom   22 type  1   force =     0.00034873    0.00009815    0.00131270
     atom   23 type  1   force =     0.00015488   -0.00004631   -0.00090753
     atom   24 type  1   force =    -0.00022370    0.00027157    0.00056376
     atom   25 type  1   force =     0.00006910   -0.00004044   -0.00082886
     atom   26 type  1   force =    -0.00002007   -0.00001165    0.00080662
     atom   27 type  1   force =    -0.00000100    0.00003611   -0.00090826
     atom   28 type  1   force =    -0.00007127    0.00001767    0.00091109
     atom   29 type  1   force =    -0.00009199    0.00001652   -0.00068096
     atom   30 type  1   force =     0.00002335   -0.00004395    0.00075526
     atom   31 type  1   force =    -0.00004784   -0.00005057   -0.00056691
     atom   32 type  1   force =     0.00010022    0.00005467    0.00071481
     atom   33 type  2   force =     0.00059001    0.00098582   -0.00033304
     atom   34 type  2   force =    -0.00030736   -0.00003510    0.00000437
     atom   35 type  2   force =     0.00003783    0.00069970   -0.00051054
     atom   36 type  2   force =     0.00091802   -0.00042884    0.00016406
     atom   37 type  3   force =    -0.00024999    0.00010059    0.00032501
     atom   38 type  3   force =     0.00061019   -0.00118354    0.00079505
     atom   39 type  3   force =     0.00028837   -0.00155095    0.00064850
     atom   40 type  3   force =    -0.00014876   -0.00007180    0.00025782
     atom   41 type  3   force =    -0.00052949    0.00135119   -0.00026380
     atom   42 type  4   force =     0.00009691   -0.00030745    0.00024777
     atom   43 type  4   force =    -0.00079837    0.00092411    0.00072552
     atom   44 type  4   force =     0.00003637   -0.00013509   -0.00033403
     atom   45 type  4   force =     0.00044582    0.00003881   -0.00008973
     atom   46 type  4   force =    -0.00086079   -0.00036870   -0.00091366
     atom   47 type  4   force =     0.00002142    0.00004413    0.00042043

     Total force =     0.006259     Total SCF correction =     0.000953
     SCF correction compared to forces is large: reduce conv_thr to get better values
 !ASE

     Writing output data file calc.save

     General routines

     Parallel routines

   This run was terminated on:  22:45:52   8Apr2019

   JOB DONE.