     Program PWSCF v.5.1rc2 starts on  9Feb2019 at 22: 8:49

     Current dimensions of program PWSCF are:
     Max number of different atomic species (ntypx) = 10
     Max number of k-points (npk) =  40000
     Max angular momentum in pseudopotentials (lmaxx) =  3

     IMPORTANT: XC functional enforced from input :
     Exchange-correlation      = PBE ( 1  4  3  4 0)
     Any further DFT definition will be discarded
     Please, verify this is what you really want

     Subspace diagonalization in iterative solution of the eigenvalue problem:
     a serial algorithm will be used

     bravais-lattice index     =            0
     lattice parameter (alat)  =       1.8897  a.u.
     unit-cell volume          =   18112.9477 (a.u.)^3
     number of atoms/cell      =           48
     number of atomic types    =            4
     number of electrons       =       654.00
     number of Kohn-Sham states=          337
     kinetic-energy cutoff     =      40.4243  Ry
     charge density cutoff     =     330.7439  Ry
     convergence threshold     =      7.3E-07
     mixing beta               =       0.2000
     number of iterations used =            8  local-TF  mixing
     Exchange-correlation      = PBE ( 1  4  3  4 0)
     nstep                     =           50

     celldm(1)=   1.889726  celldm(2)=   0.000000  celldm(3)=   0.000000
     celldm(4)=   0.000000  celldm(5)=   0.000000  celldm(6)=   0.000000

     crystal axes: (cart. coord. in units of alat)
               a(1) = (  10.224481   0.000000   0.000000 )
               a(2) = (  -5.112241   8.854660   0.000000 )
               a(3) = (   0.000000   0.000000  29.646903 )

     reciprocal axes: (cart. coord. in units 2 pi/alat)
               b(1) = (  0.097804  0.056467  0.000000 )
               b(2) = (  0.000000  0.112935  0.000000 )
               b(3) = (  0.000000  0.000000  0.033730 )

     PseudoPot. # 1 for Cu read from file:
     /gpfs/pace1/project/chbe-medford/medford-share/data/pseudos/SSSP_eff_PBE/Cu.UPF
     MD5 check sum: 6e991ff952a84172a2a52a1c1e996048
     Pseudo is Ultrasoft + core correction, Zval = 19.0
     Generated by new atomic code, or converted to UPF format
     Using radial grid of  867 points,  6 beta functions with:
                l(1) =   0
                l(2) =   0
                l(3) =   1
                l(4) =   1
                l(5) =   2
                l(6) =   2
     Q(r) pseudized with  8 coefficients,  rinner =    1.150   1.150   1.150
                                                       1.150   1.150

     PseudoPot. # 2 for O  read from file:
     /gpfs/pace1/project/chbe-medford/medford-share/data/pseudos/SSSP_eff_PBE/O.UPF
     MD5 check sum: 734c27235a0248c51dbae37a1fbe46ec
     Pseudo is Ultrasoft + core correction, Zval =  6.0
     Generated by new atomic code, or converted to UPF format
     Using radial grid of  737 points,  5 beta functions with:
                l(1) =   0
                l(2) =   0
                l(3) =   1
                l(4) =   1
                l(5) =   2
     Q(r) pseudized with  8 coefficients,  rinner =    0.900   0.900   0.900
                                                       0.900   0.900

     PseudoPot. # 3 for C  read from file:
     /gpfs/pace1/project/chbe-medford/medford-share/data/pseudos/SSSP_eff_PBE/C.UPF
     MD5 check sum: d1aef80898a10debaa0f26306b886e00
     Pseudo is Ultrasoft + core correction, Zval =  4.0
     Generated by new atomic code, or converted to UPF format
     Using radial grid of  721 points,  4 beta functions with:
                l(1) =   0
                l(2) =   0
                l(3) =   1
                l(4) =   1
     Q(r) pseudized with  8 coefficients,  rinner =    1.100   1.100   1.100

     PseudoPot. # 4 for  H read from file:
     /gpfs/pace1/project/chbe-medford/medford-share/data/pseudos/SSSP_eff_PBE/H.UPF
     MD5 check sum: 36633979392af7100e6f6632747262d3
     Pseudo is Ultrasoft, Zval =  1.0
     Generated using "atomic" code by A. Dal Corso  v.5.0.99 svn rev. 10869
     Using radial grid of  929 points,  2 beta functions with:
                l(1) =   0
                l(2) =   0
     Q(r) pseudized with 0 coefficients

     atomic species   valence    mass     pseudopotential
        Cu1           19.00    63.54600     Cu( 1.00)
        O1             6.00    15.99940     O ( 1.00)
        C1             4.00    12.01100     C ( 1.00)
        H1             1.00     1.00794      H( 1.00)

     No symmetry found

   Cartesian axes

     site n.     atom                  positions (alat units)
         1           Cu1 tau(   1) = (   0.0000000   0.0000000  10.0000000  )
         2           Cu1 tau(   2) = (   1.2780602   0.7378884  12.0870635  )
         3           Cu1 tau(   3) = (  -1.2780602   2.2136651  10.0000000  )
         4           Cu1 tau(   4) = (   0.0000000   2.9515535  12.0870635  )
         5           Cu1 tau(   5) = (  -2.5561203   4.4273302  10.0000000  )
         6           Cu1 tau(   6) = (  -1.2780602   5.1652186  12.0870635  )
         7           Cu1 tau(   7) = (  -3.8341805   6.6409954  10.0000000  )
         8           Cu1 tau(   8) = (  -2.5561203   7.3788837  12.0870635  )
         9           Cu1 tau(   9) = (   2.5561203   0.0000000  10.0000000  )
        10           Cu1 tau(  10) = (   3.8341805   0.7378884  12.0870635  )
        11           Cu1 tau(  11) = (   1.2780602   2.2136651  10.0000000  )
        12           Cu1 tau(  12) = (   2.5561203   2.9515535  12.0870635  )
        13           Cu1 tau(  13) = (   0.0000000   4.4273302  10.0000000  )
        14           Cu1 tau(  14) = (   1.2780602   5.1652186  12.0870635  )
        15           Cu1 tau(  15) = (  -1.2780602   6.6409954  10.0000000  )
        16           Cu1 tau(  16) = (   0.0000000   7.3788837  12.0870635  )
        17           Cu1 tau(  17) = (   5.1122406   0.0000000  10.0000000  )
        18           Cu1 tau(  18) = (   6.3903008   0.7378884  12.0870635  )
        19           Cu1 tau(  19) = (   3.8341805   2.2136651  10.0000000  )
        20           Cu1 tau(  20) = (   5.1122406   2.9515535  12.0870635  )
        21           Cu1 tau(  21) = (   2.5561203   4.4273302  10.0000000  )
        22           Cu1 tau(  22) = (   3.8341805   5.1652186  12.0870635  )
        23           Cu1 tau(  23) = (   1.2780602   6.6409954  10.0000000  )
        24           Cu1 tau(  24) = (   2.5561203   7.3788837  12.0870635  )
        25           Cu1 tau(  25) = (   7.6683609   0.0000000  10.0000000  )
        26           Cu1 tau(  26) = (   8.9464211   0.7378884  12.0870635  )
        27           Cu1 tau(  27) = (   6.3903008   2.2136651  10.0000000  )
        28           Cu1 tau(  28) = (   7.6683609   2.9515535  12.0870635  )
        29           Cu1 tau(  29) = (   5.1122406   4.4273302  10.0000000  )
        30           Cu1 tau(  30) = (   6.3903008   5.1652186  12.0870635  )
        31           Cu1 tau(  31) = (   3.8341805   6.6409954  10.0000000  )
        32           Cu1 tau(  32) = (   5.1122406   7.3788837  12.0870635  )
        33           O1  tau(  33) = (   5.1632000   7.5278056  16.7387357  )
        34           O1  tau(  34) = (   5.1120000   2.9520000  14.5870635  )
        35           O1  tau(  35) = (   5.1629000   2.5068933  16.8136109  )
        36           C1  tau(  36) = (   5.1492000   5.2393101  17.5175261  )
        37           C1  tau(  37) = (   5.1443000   4.8182607  16.0516052  )
        38           C1  tau(  38) = (   5.1446000   6.7476773  17.6895575  )
        39           C1  tau(  39) = (   5.1111000   7.2533549  19.1084983  )
        40           C1  tau(  40) = (   5.1416000   3.3154018  15.8960331  )
        41           H1  tau(  41) = (   6.0395000   4.8436822  18.0195738  )
        42           H1  tau(  42) = (   4.2647000   4.8372707  18.0248788  )
        43           H1  tau(  43) = (   6.0331000   5.2130101  15.5462791  )
        44           H1  tau(  44) = (   4.2531000   5.2159197  15.5530396  )
        45           H1  tau(  45) = (   4.1984000   6.9066467  19.5994145  )
        46           H1  tau(  46) = (   5.9905000   6.8916997  19.6469034  )
        47           H1  tau(  47) = (   5.1206000   8.3468201  19.1109609  )
        48           H1  tau(  48) = (   5.1101000   1.9771262  14.4785945  )

     number of k points=     4  Fermi-Dirac smearing, width (Ry)=  0.0073
                       cart. coord. in units 2pi/alat
        k(    1) = (   0.0000000   0.0000000   0.0000000), wk =   0.5000000
        k(    2) = (   0.0000000  -0.0564674   0.0000000), wk =   0.5000000
        k(    3) = (   0.0489022  -0.0282337   0.0000000), wk =   0.5000000
        k(    4) = (  -0.0489022  -0.0282337   0.0000000), wk =   0.5000000

     Largest allocated arrays     est. size (Mb)     dimensions
     Largest temporary arrays     est. size (Mb)     dimensions

     Initial potential from superposition of free atoms
     Check: negative starting charge=   -0.009956

     starting charge  621.99965, renormalised to  654.00000

     negative rho (up, down):  1.047E-02 0.000E+00
     Starting wfc are  456 randomized atomic wfcs

     Self-consistent Calculation

     iteration #  1     ecut=    40.42 Ry     beta=0.20
     Davidson diagonalization with overlap
     ethr =  1.00E-02,  avg # of iterations =  4.2

     negative rho (up, down):  2.831E-01 0.000E+00

     total energy              =  -13091.56688144 Ry
     Harris-Foulkes estimate   =  -13122.37627588 Ry
     estimated scf accuracy    <     560.50687295 Ry

[...]

     End of self-consistent calculation

          k = 0.0000 0.0000 0.0000 ( 78683 PWs)   bands (ev):

  -113.6290-113.6035-113.6010-113.5891-113.5872-113.5839-113.5838-113.5830
  -113.5817-113.5813-113.5804-113.5800-113.5795-113.5791-113.5785-113.5784
  -113.5773-113.5770-113.5766-113.5766-113.5762-113.5759-113.5758-113.5749
  -113.5748-113.5738-113.5737-113.5731-113.5724-113.5717-113.5712-113.5706
   -71.0756 -71.0723 -71.0587 -71.0522 -71.0513 -71.0498 -71.0466 -71.0459
   -71.0428 -71.0417 -71.0397 -71.0384 -71.0374 -71.0372 -71.0352 -71.0349
   -71.0346 -71.0342 -71.0272 -71.0241 -71.0182 -71.0172 -71.0161 -71.0159
   -71.0137 -71.0114 -71.0109 -71.0089 -71.0087 -71.0086 -71.0080 -71.0077
   -71.0071 -71.0071 -71.0065 -71.0064 -71.0022 -71.0009 -71.0007 -71.0002
   -70.9999 -70.9990 -70.9961 -70.9960 -70.9950 -70.9886 -70.9878 -70.9859
   -70.9841 -70.9835 -70.9832 -70.9827 -70.9822 -70.9813 -70.9763 -70.9754
   -70.9739 -70.9727 -70.9727 -70.9720 -70.9715 -70.9710 -70.9698 -70.9639
   -70.9638 -70.9503 -70.9438 -70.9419 -70.9341 -70.9338 -70.9332 -70.9308
   -70.9260 -70.9203 -70.9197 -70.9182 -70.9182 -70.9164 -70.9161 -70.9156
   -70.9090 -70.9051 -70.9036 -70.9010 -70.9004 -70.8999 -70.8990 -70.8981
   -70.8974 -70.8971 -70.8951 -70.8943 -70.8931 -70.8920 -70.8911 -70.8905
   -24.7335 -22.7557 -22.3887 -16.9688 -15.5834 -14.0941 -12.0719  -9.9099
    -9.3075  -9.2023  -9.1894  -8.8343  -8.1303  -7.8700  -7.5934  -7.4773
    -7.4759  -7.4724  -7.4711  -7.4702  -7.4407  -7.1996  -6.6879  -6.5810
    -6.0211  -5.9640  -5.9106  -5.6051  -5.6042  -5.5990  -5.5788  -5.5776
[...]
               a(2) = (  -5.112241   8.854660   0.000000 )
               a(3) = (   0.000000   0.000000  29.646903 )

     reciprocal axes: (cart. coord. in units 2 pi/alat)
               b(1) = (  0.097804  0.056467  0.000000 )
               b(2) = (  0.000000  0.112935  0.000000 )
               b(3) = (  0.000000  0.000000  0.033730 )

     PseudoPot. # 1 for Cu read from file:
     /gpfs/pace1/project/chbe-medford/medford-share/data/pseudos/SSSP_eff_PBE/Cu.UPF
     MD5 check sum: 6e991ff952a84172a2a52a1c1e996048
     Pseudo is Ultrasoft + core correction, Zval = 19.0
     Generated by new atomic code, or converted to UPF format
     Using radial grid of  867 points,  6 beta functions with:
                l(1) =   0
                l(2) =   0
                l(3) =   1
                l(4) =   1
                l(5) =   2
                l(6) =   2
     Q(r) pseudized with  8 coefficients,  rinner =    1.150   1.150   1.150
                                                       1.150   1.150

     PseudoPot. # 2 for O  read from file:
     /gpfs/pace1/project/chbe-medford/medford-share/data/pseudos/SSSP_eff_PBE/O.UPF
     MD5 check sum: 734c27235a0248c51dbae37a1fbe46ec
     Pseudo is Ultrasoft + core correction, Zval =  6.0
     Generated by new atomic code, or converted to UPF format
     Using radial grid of  737 points,  5 beta functions with:
                l(1) =   0
                l(2) =   0
                l(3) =   1
                l(4) =   1
                l(5) =   2
     Q(r) pseudized with  8 coefficients,  rinner =    0.900   0.900   0.900
                                                       0.900   0.900

     PseudoPot. # 3 for C  read from file:
     /gpfs/pace1/project/chbe-medford/medford-share/data/pseudos/SSSP_eff_PBE/C.UPF
     MD5 check sum: d1aef80898a10debaa0f26306b886e00
     Pseudo is Ultrasoft + core correction, Zval =  4.0
     Generated by new atomic code, or converted to UPF format
     Using radial grid of  721 points,  4 beta functions with:
                l(1) =   0
                l(2) =   0
                l(3) =   1
                l(4) =   1
     Q(r) pseudized with  8 coefficients,  rinner =    1.100   1.100   1.100

     PseudoPot. # 4 for  H read from file:
     /gpfs/pace1/project/chbe-medford/medford-share/data/pseudos/SSSP_eff_PBE/H.UPF
     MD5 check sum: 36633979392af7100e6f6632747262d3
     Pseudo is Ultrasoft, Zval =  1.0
     Generated using "atomic" code by A. Dal Corso  v.5.0.99 svn rev. 10869
     Using radial grid of  929 points,  2 beta functions with:
                l(1) =   0
                l(2) =   0
     Q(r) pseudized with 0 coefficients

     atomic species   valence    mass     pseudopotential
        Cu1           19.00    63.54600     Cu( 1.00)
        O1             6.00    15.99940     O ( 1.00)
        C1             4.00    12.01100     C ( 1.00)
        H1             1.00     1.00794      H( 1.00)

     No symmetry found

   Cartesian axes

     site n.     atom                  positions (alat units)
         1           Cu1 tau(   1) = (   0.0000000   0.0000000  10.0000000  )
         2           Cu1 tau(   2) = (   1.2780602   0.7378884  12.0870635  )
         3           Cu1 tau(   3) = (  -1.2780602   2.2136651  10.0000000  )
         4           Cu1 tau(   4) = (   0.0000000   2.9515535  12.0870635  )
         5           Cu1 tau(   5) = (  -2.5561203   4.4273302  10.0000000  )
         6           Cu1 tau(   6) = (  -1.2780602   5.1652186  12.0870635  )
         7           Cu1 tau(   7) = (  -3.8341805   6.6409954  10.0000000  )
         8           Cu1 tau(   8) = (  -2.5561203   7.3788837  12.0870635  )
         9           Cu1 tau(   9) = (   2.5561203   0.0000000  10.0000000  )
        10           Cu1 tau(  10) = (   3.8341805   0.7378884  12.0870635  )
        11           Cu1 tau(  11) = (   1.2780602   2.2136651  10.0000000  )
        12           Cu1 tau(  12) = (   2.5561203   2.9515535  12.0870635  )
        13           Cu1 tau(  13) = (   0.0000000   4.4273302  10.0000000  )
        14           Cu1 tau(  14) = (   1.2780602   5.1652186  12.0870635  )
        15           Cu1 tau(  15) = (  -1.2780602   6.6409954  10.0000000  )
        16           Cu1 tau(  16) = (   0.0000000   7.3788837  12.0870635  )
        17           Cu1 tau(  17) = (   5.1122406   0.0000000  10.0000000  )
        18           Cu1 tau(  18) = (   6.3903008   0.7378884  12.0870635  )
        19           Cu1 tau(  19) = (   3.8341805   2.2136651  10.0000000  )
        20           Cu1 tau(  20) = (   5.1122406   2.9515535  12.0870635  )
        21           Cu1 tau(  21) = (   2.5561203   4.4273302  10.0000000  )
        22           Cu1 tau(  22) = (   3.8341805   5.1652186  12.0870635  )
        23           Cu1 tau(  23) = (   1.2780602   6.6409954  10.0000000  )
        24           Cu1 tau(  24) = (   2.5561203   7.3788837  12.0870635  )
        25           Cu1 tau(  25) = (   7.6683609   0.0000000  10.0000000  )
        26           Cu1 tau(  26) = (   8.9464211   0.7378884  12.0870635  )
        27           Cu1 tau(  27) = (   6.3903008   2.2136651  10.0000000  )
        28           Cu1 tau(  28) = (   7.6683609   2.9515535  12.0870635  )
        29           Cu1 tau(  29) = (   5.1122406   4.4273302  10.0000000  )
        30           Cu1 tau(  30) = (   6.3903008   5.1652186  12.0870635  )
        31           Cu1 tau(  31) = (   3.8341805   6.6409954  10.0000000  )
        32           Cu1 tau(  32) = (   5.1122406   7.3788837  12.0870635  )
        33           O1  tau(  33) = (   5.1632000   7.5278056  16.7387357  )
        34           O1  tau(  34) = (   5.1120000   2.9520000  14.5870635  )
        35           O1  tau(  35) = (   5.1629000   2.5068933  16.8136109  )
        36           C1  tau(  36) = (   5.1492000   5.2393101  17.5175261  )
        37           C1  tau(  37) = (   5.1443000   4.8182607  16.0516052  )
        38           C1  tau(  38) = (   5.1446000   6.7476773  17.6895575  )
        39           C1  tau(  39) = (   5.1111000   7.2533549  19.1084983  )
        40           C1  tau(  40) = (   5.1416000   3.3154018  15.8960331  )
        41           H1  tau(  41) = (   6.0395000   4.8436822  18.0195738  )
        42           H1  tau(  42) = (   4.2647000   4.8372707  18.0248788  )
        43           H1  tau(  43) = (   6.0331000   5.2130101  15.5462791  )
        44           H1  tau(  44) = (   4.2531000   5.2159197  15.5530396  )
        45           H1  tau(  45) = (   4.1984000   6.9066467  19.5994145  )
        46           H1  tau(  46) = (   5.9905000   6.8916997  19.6469034  )
        47           H1  tau(  47) = (   5.1206000   8.3468201  19.1109609  )
        48           H1  tau(  48) = (   5.1101000   1.9771262  14.4785945  )

     number of k points=    10  Fermi-Dirac smearing, width (Ry)=  0.0073
                       cart. coord. in units 2pi/alat
        k(    1) = (   0.0000000   0.0000000   0.0000000), wk =   0.1250000
        k(    2) = (   0.0000000   0.0282337   0.0000000), wk =   0.2500000
        k(    3) = (   0.0000000  -0.0564674   0.0000000), wk =   0.1250000
        k(    4) = (   0.0244511   0.0423506   0.0000000), wk =   0.2500000
        k(    5) = (  -0.0244511   0.0141169   0.0000000), wk =   0.2500000
        k(    6) = (   0.0244511   0.0141169   0.0000000), wk =   0.2500000
        k(    7) = (   0.0489022  -0.0282337   0.0000000), wk =   0.1250000
        k(    8) = (  -0.0489022  -0.0282337   0.0000000), wk =   0.1250000
        k(    9) = (  -0.0244511   0.0423506   0.0000000), wk =   0.2500000
        k(   10) = (   0.0489022  -0.0000000   0.0000000), wk =   0.2500000

     Largest allocated arrays     est. size (Mb)     dimensions
     Largest temporary arrays     est. size (Mb)     dimensions

     Initial potential from superposition of free atoms
     Check: negative starting charge=   -0.009956

     starting charge  621.99965, renormalised to  654.00000

     negative rho (up, down):  1.047E-02 0.000E+00
     Starting wfc are  456 randomized atomic wfcs

[...]

     Total force =     0.013872     Total SCF correction =     0.000739
 !ASE

[...]

     Writing output data file calc.save
     Check: negative starting charge=   -0.009828
     NEW-OLD atomic charge density approx. for the potential
     Check: negative starting charge=   -0.009826

[...]

     Self-consistent Calculation

[...]

     total energy              =  -13083.74579789 Ry
     Harris-Foulkes estimate   =  -13083.74579787 Ry
     estimated scf accuracy    <       0.00000052 Ry

     iteration #  9     ecut=    40.42 Ry     beta=0.07
     Davidson diagonalization with overlap
     ethr =  7.92E-11,  avg # of iterations =  1.9

     negative rho (up, down):  4.123E-03 0.000E+00

     End of self-consistent calculation

[...]

          k =-0.0245 0.0424 0.0000 ( 78586 PWs)   bands (ev):

[...]

          k = 0.0489-0.0000 0.0000 ( 78586 PWs)   bands (ev):

  -113.5522-113.5501-113.5497-113.5474-113.5463-113.5459-113.5452-113.5443
  -113.5437-113.5436-113.5431-113.5428-113.5423-113.5415-113.5414-113.5411
  -113.5407-113.5404-113.5399-113.5395-113.5394-113.5392-113.5390-113.5387
  -113.5385-113.5382-113.5379-113.5377-113.5373-113.5372-113.5363-113.5334
   -71.0156 -71.0123 -71.0117 -71.0103 -71.0100 -71.0081 -71.0052 -71.0050
   -71.0045 -71.0041 -71.0030 -71.0027 -71.0009 -71.0005 -70.9992 -70.9987
   -70.9986 -70.9945 -70.9937 -70.9930 -70.9886 -70.9882 -70.9875 -70.9801
   -70.9793 -70.9791 -70.9761 -70.9757 -70.9737 -70.9735 -70.9664 -70.9628
   -70.9626 -70.9616 -70.9615 -70.9589 -70.9585 -70.9572 -70.9559 -70.9557
   -70.9552 -70.9549 -70.9541 -70.9515 -70.9506 -70.9505 -70.9500 -70.9497
   -70.9493 -70.9481 -70.9468 -70.9463 -70.9448 -70.9437 -70.9435 -70.9420
   -70.9415 -70.9410 -70.9402 -70.9392 -70.9363 -70.9325 -70.9324 -70.9294
   -70.9085 -70.9047 -70.9044 -70.8967 -70.8954 -70.8915 -70.8897 -70.8893
   -70.8866 -70.8857 -70.8850 -70.8833 -70.8801 -70.8782 -70.8773 -70.8732
   -70.8692 -70.8666 -70.8657 -70.8647 -70.8632 -70.8619 -70.8617 -70.8611
   -70.8606 -70.8596 -70.8591 -70.8582 -70.8573 -70.8566 -70.8561 -70.8544
   -24.5450 -22.8766 -22.2640 -16.8914 -15.5003 -13.9349 -11.6462  -9.9409
    -9.1244  -8.9885  -8.9054  -8.6524  -8.4281  -8.4251  -7.9693  -7.8499
    -7.5989  -7.1478  -7.1463  -6.9805  -6.5894  -6.4519  -6.2826  -6.2820
    -6.2749  -6.0855  -6.0053  -5.8903  -5.8838  -5.8504  -5.8498  -5.8306
    -5.8295  -5.7491  -5.3992  -5.3782  -5.3598  -5.3036  -5.3033  -5.2583
    -5.2583  -5.1834  -5.1833  -5.0984  -5.0982  -5.0900  -5.0898  -5.0634
    -5.0621  -5.0085  -5.0015  -4.9853  -4.9850  -4.8882  -4.8880  -4.8716
    -4.8713  -4.8465  -4.8457  -4.7817  -4.7576  -4.7321  -4.6970  -4.6540
    -4.5457  -4.5447  -4.4555  -4.4041  -4.4033  -4.2505  -4.2503  -4.2271
    -4.2054  -4.2046  -4.2034  -4.2025  -4.1989  -4.1889  -4.1885  -4.1575
    -4.1554  -4.1551  -4.1446  -4.1441  -4.1352  -4.1351  -4.1230  -4.0791
    -4.0790  -4.0608  -4.0450  -4.0336  -3.9981  -3.9623  -3.9622  -3.9546
    -3.9493  -3.9238  -3.9233  -3.8552  -3.8516  -3.8513  -3.8278  -3.7962
    -3.7958  -3.7934  -3.7933  -3.7922  -3.7370  -3.7356  -3.6977  -3.6968
    -3.6932  -3.6926  -3.6905  -3.6902  -3.6661  -3.6654  -3.6567  -3.6318
    -3.6305  -3.6272  -3.6270  -3.5985  -3.5967  -3.5750  -3.5739  -3.5546
    -3.5309  -3.5301  -3.4977  -3.4968  -3.4701  -3.4519  -3.3870  -3.3746
    -3.3498  -3.2888  -3.2834  -3.2767  -3.2733  -3.2685  -3.2218  -3.2071
    -3.1970  -3.1967  -3.1852  -3.1841  -3.1757  -3.1733  -3.1358  -3.1345
    -3.1074  -3.1072  -3.0945  -3.0824  -3.0173  -3.0133  -3.0132  -3.0002
    -3.0001  -2.9683  -2.9683  -2.9682  -2.9680  -2.9670  -2.9501  -2.9498
    -2.9137  -2.9131  -2.9100  -2.9097  -2.8868  -2.8829  -2.8699  -2.8666
    -2.8658  -2.8266  -2.8264  -2.8175  -2.8096  -2.8094  -2.7947  -2.7628
    -2.7625  -2.7471  -2.7257  -2.7251  -2.6761  -2.6760  -2.6323  -2.5642
    -2.4704  -2.4608  -2.0329  -2.0317  -1.9817  -1.9811  -1.6128  -1.5963
    -0.8723  -0.6820  -0.6762  -0.4745   0.0079   0.2006   0.2029   0.2469
     0.2684

     the Fermi energy is    -1.2974 ev

!    total energy              =  -13083.74579793 Ry
     Harris-Foulkes estimate   =  -13083.74579791 Ry
     estimated scf accuracy    <       0.00000031 Ry

     The total energy is the sum of the following terms:

     one-electron contribution = -112565.33796840 Ry
     hartree contribution      =   56279.63183371 Ry
     xc contribution           =   -1285.99752474 Ry
     ewald contribution        =   44487.97601947 Ry
     smearing contrib. (-TS)   =      -0.01815797 Ry

     convergence has been achieved in   9 iterations

     Forces acting on atoms (Ry/au):

     negative rho (up, down):  4.123E-03 0.000E+00
     atom    1 type  1   force =     0.00003865   -0.00002245   -0.00053559
     atom    2 type  1   force =     0.00013261    0.00006552    0.00091364
     atom    3 type  1   force =     0.00007479   -0.00004110   -0.00094343
     atom    4 type  1   force =     0.00011966    0.00008376    0.00084524
     atom    5 type  1   force =     0.00004101    0.00004956   -0.00102151
     atom    6 type  1   force =     0.00010576    0.00009851    0.00093293
     atom    7 type  1   force =    -0.00007229    0.00005835   -0.00082126
     atom    8 type  1   force =     0.00017616    0.00005073    0.00102208
     atom    9 type  1   force =    -0.00004726    0.00007366   -0.00087467
     atom   10 type  1   force =    -0.00021651   -0.00074239    0.00014353
     atom   11 type  1   force =     0.00006965   -0.00000583   -0.00086218
     atom   12 type  1   force =    -0.00054563    0.00014566    0.00058153
     atom   13 type  1   force =     0.00013335    0.00003825   -0.00084445
     atom   14 type  1   force =     0.00004337    0.00004662    0.00085305
     atom   15 type  1   force =     0.00007532    0.00002156   -0.00086435
     atom   16 type  1   force =     0.00002521    0.00012919    0.00101932
     atom   17 type  1   force =    -0.00002872   -0.00003973   -0.00109137
     atom   18 type  1   force =     0.00012105   -0.00076193    0.00022907
     atom   19 type  1   force =    -0.00014361   -0.00002337   -0.00077562
     atom   20 type  1   force =    -0.00006230    0.00004242    0.00228787
     atom   21 type  1   force =    -0.00004754    0.00004264   -0.00090602
     atom   22 type  1   force =    -0.00038533    0.00032497    0.00036208
     atom   23 type  1   force =     0.00002434   -0.00008972   -0.00085380
     atom   24 type  1   force =    -0.00018965   -0.00009640    0.00097319
     atom   25 type  1   force =     0.00002863   -0.00006768   -0.00093792
     atom   26 type  1   force =    -0.00005280    0.00000606    0.00097289
     atom   27 type  1   force =    -0.00000316   -0.00007960   -0.00085294
     atom   28 type  1   force =     0.00051091    0.00009587    0.00068204
     atom   29 type  1   force =    -0.00013160    0.00009524   -0.00074861
     atom   30 type  1   force =     0.00023818    0.00035190    0.00046765
     atom   31 type  1   force =    -0.00003150   -0.00004960   -0.00080460
     atom   32 type  1   force =    -0.00001553   -0.00007278    0.00152154
     atom   33 type  2   force =     0.00016339   -0.00073792   -0.00075290
     atom   34 type  2   force =     0.00009472   -0.00089082    0.00057845
     atom   35 type  2   force =    -0.00013588    0.00090561   -0.00046218
     atom   36 type  3   force =     0.00049548   -0.00050573    0.00094663
     atom   37 type  3   force =    -0.00012460    0.00008657   -0.00006171
     atom   38 type  3   force =    -0.00001232    0.00136940    0.00022600
     atom   39 type  3   force =     0.00041845   -0.00031677   -0.00093555
     atom   40 type  3   force =     0.00019178   -0.00027624    0.00005561
     atom   41 type  4   force =     0.00000347    0.00005206    0.00004588
     atom   42 type  4   force =    -0.00044172   -0.00008771    0.00021935
     atom   43 type  4   force =     0.00004222    0.00044216   -0.00007541
     atom   44 type  4   force =    -0.00023018    0.00047573    0.00007049
     atom   45 type  4   force =    -0.00036447   -0.00060420    0.00020771
     atom   46 type  4   force =    -0.00008300   -0.00046138    0.00004998
     atom   47 type  4   force =     0.00000083   -0.00013557   -0.00035952
     atom   48 type  4   force =    -0.00000340    0.00095691    0.00017785

     Total force =     0.006403     Total SCF correction =     0.001891
     SCF correction compared to forces is large: reduce conv_thr to get better values
 !ASE

     Writing output data file calc.save

     General routines

     Parallel routines

   This run was terminated on:   0:56:48   9Apr2019

   JOB DONE.